Node Number,Equivalent (von-Mises) Stress (MPa)
4537,8.1889
4538,5.2015
4539,7.5306
4540,4.6555
4541,2.0211
4542,5.51
4543,1.417
4544,0.76033
4545,1.688
4546,10.634
4547,0.94608
4548,3.4652
4549,0.45528
4550,3.2998
4551,2.7965
4552,1.7682
4553,1.1904
4554,7.01E-02
4555,9.71E-02
4556,4.95E-02
4557,0.10774
4558,0.15789
4559,8.99E-02
4560,0.3069
4561,9.05E-02
4562,5.30E-02
4563,2.62E-02
4564,2.73E-02
4565,0.1124
4566,8.02E-02
4567,2.06E-02
4568,0.44444
4569,0.69885
4570,0.39137
4571,0.62072
4572,0.50478
4573,0.15869
4574,0.34824
4575,0.43572
4576,0.84822
4577,0.74559
4578,0.55404
4579,0.20268
4580,4.59E-02
4581,4.7251
4582,0.20223
4583,5.61E-02
4584,2.92E-02
4585,0.47599
4586,0.12604
4587,5.04E-02
4588,0.35169
4589,6.85E-02
4590,3.5223
4591,4.20E-02
4592,0.18958
4593,2.04E-02
4594,0.16914
4595,0.12767
4596,0.72748
4597,0.16346
4598,4.45E-02
4599,2.93E-02
4600,6.44E-02
4601,1.3632
4602,1.4023
4603,0.37055
4604,1.64E-02
4605,1.319
4606,7.31E-02
4607,6.29E-02
4608,3.4812
4609,0.36245
4610,8.48E-02
4611,8.58E-02
4612,0.13622
4613,3.11E-02
4614,0.25976
4615,0.57377
4616,4.67E-02
4617,0.20658
4618,0.18645
4619,0.13237
4620,4.6378
4621,1.0393
4622,0.87108
4623,1.1931
4624,2.66E-02
4625,2.89E-02
4626,6.67E-02
4627,0.42193
4628,0.1212
4629,0.94167
4630,6.42E-02
4631,7.39E-02
4632,0.6793
4633,4.81E-02
4634,5.00E-02
4635,3.84E-02
4636,1.6785
4637,1.6589
4638,0.43108
4639,5.82E-02
4640,0.43097
4641,1.7073
4642,5.97E-02
4643,4.33E-02
4644,0.44415
4645,0.59891
4646,1.92E-02
4647,1.19E-02
4648,2.81E-02
4649,1.53E-02
4650,7.59E-03
4651,1.2018
4652,0.12288
4653,0.147
4654,0.10389
4655,7.89E-02
4656,1.77E-02
4657,3.05E-02
4658,0.14856
4659,1.72E-02
4660,1.26E-02
4661,2.67E-02
4662,0.29984
4663,8.83E-02
4664,0.14519
4665,7.56E-02
4666,0.10074
4667,1.9017
4668,1.7812
4669,8.09E-02
4670,4.91E-02
4671,0.70132
4672,1.3458
4673,0.29737
4674,0.12011
4675,5.05E-02
4676,0.19208
4677,0.27247
4678,0.66398
4679,0.39379
4680,0.17595
4681,0.16482
4682,0.9431
4683,0.49947
4684,1.8853
4685,1.1826
4686,5.78E-02
4687,7.12E-02
4688,0.33017
4689,0.17758
4690,0.18636
4691,0.32378
4692,0.16006
4693,0.20855
4694,0.24023
4695,0.19908
4696,0.3006
4697,0.26843
4698,0.1601
4699,5.23E-02
4700,0.16738
4701,0.18577
4702,0.21758
4703,0.10381
4704,0.19669
4705,1.6436
4706,5.87E-02
4707,0.80027
4708,0.28024
4709,1.8267
4710,1.3793
4711,0.11359
4712,0.17664
4713,1.9374
4714,9.93E-02
4715,8.63E-02
4716,0.13314
4717,0.24458
4718,0.19324
4719,2.0234
4720,1.2677
4721,0.60774
4722,0.10162
4723,7.13E-02
4724,0.18775
4725,6.16E-02
4726,9.99E-02
4727,9.49E-02
4728,0.24299
4729,0.80469
4730,1.8216
4731,0.18973
4732,0.35895
4733,1.2503
4734,1.7599
4735,0.20576
4736,0.83029
4737,0.44947
4738,1.9915
4739,2.169
4740,0.3567
4741,0.39941
4742,1.5063
4743,0.78089
4744,0.26449
4745,0.15655
4746,2.0835
4747,0.38464
4748,1.7381
4749,0.93803
4750,0.23655
4751,0.38245
4752,2.4516
4753,2.156
4754,0.49656
4755,0.2776
4756,1.582
4757,2.1554
4758,2.3444
4759,2.6614
4760,1.9979
4761,0.57118
4762,1.1388
4763,0.31945
4764,0.53951
4765,0.44511
4766,0.67682
4767,2.7004
4768,0.39888
4769,1.1772
4770,2.1126
4771,3.036
4772,2.3772
4773,2.1046
4774,0.97783
4775,1.391
4776,0.43748
4777,0.26531
4778,0.11521
4779,0.39544
4780,0.37057
4781,2.8571
4782,3.0847
4783,0.63383
4784,0.51111
4785,0.82753
4786,0.80123
4787,3.3135
4788,2.7096
4789,2.0187
4790,0.73554
4791,1.6654
4792,0.17309
4793,0.5687
4794,0.56183
4795,0.80364
4796,0.9828
4797,3.1694
4798,1.0138
4799,3.71
4800,3.1033
4801,1.8555
4802,0.50188
4803,1.993
4804,0.6699
4805,1.2385
4806,0.4536
4807,0.70434
4808,3.2664
4809,4.1487
4810,1.2954
4811,1.6208
4812,0.23888
4813,3.6966
4814,2.2999
4815,0.71034
4816,1.0897
4817,1.3723
4818,0.71734
4819,3.4454
4820,0.854
4821,1.047
4822,2.73
4823,1.5793
4824,4.6727
4825,4.235
4826,4.8867
4827,1.2784
4828,0.26324
4829,0.74756
4830,1.2711
4831,1.5737
4832,3.5713
4833,5.1087
4834,0.96374
4835,1.304
4836,3.1425
4837,1.7671
4838,0.72471
4839,4.7764
4840,5.2695
4841,5.52
4842,0.98615
4843,0.49672
4844,3.3419
4845,1.2093
4846,1.7812
4847,3.5466
4848,1.1935
4849,1.5904
4850,0.58381
4851,1.8995
4852,5.4436
4853,5.1277
4854,5.7643
4855,3.0541
4856,0.60164
4857,1.7869
4858,0.71766
4859,4.0301
4860,1.2964
4861,0.4106
4862,1.8949
4863,1.8632
4864,2.9538
4865,0.42543
4866,1.6228
4867,1.8662
4868,4.9363
4869,5.7124
4870,5.6038
4871,0.91098
4872,4.2453
4873,0.19991
4874,2.1774
4875,1.3996
4876,1.9205
4877,1.4166
4878,1.8573
4879,1.7621
4880,0.21737
4881,1.0513
4882,1.4006
4883,5.1757
4884,6.0925
4885,5.9361
4886,2.7791
4887,0.15244
4888,1.0737
4889,4.5825
4890,2.4658
4891,1.492
4892,6.2182
4893,5.2506
4894,2.8382
4895,0.16764
4896,0.5483
4897,1.7259
4898,0.86623
4899,1.4884
4900,4.9007
4901,1.3527
4902,2.8567
4903,1.6177
4904,6.4377
4905,5.7843
4906,5.4925
4907,1.5521
4908,1.0417
4909,0.45672
4910,1.1926
4911,3.0952
4912,0.25662
4913,1.609
4914,3.4063
4915,1.756
4916,1.2869
4917,1.7466
4918,0.23139
4919,0.72395
4920,0.26853
4921,1.9407
4922,3.5695
4923,1.8478
4924,6.7905
4925,4.3149
4926,6.2904
4927,2.1472
4928,0.29035
4929,1.6921
4930,0.87552
4931,2.5325
4932,0.87882
4933,0.20186
4934,3.795
4935,6.9872
4936,5.7231
4937,1.8577
4938,5.1973
4939,2.4805
4940,0.46916
4941,1.9828
4942,3.8131
4943,6.8303
4944,5.7124
4945,0.34216
4946,3.2554
4947,1.6225
4948,0.62597
4949,1.897
4950,5.7965
4951,0.7354
4952,3.5976
4953,2.8501
4954,2.5566
4955,6.959
4956,5.7319
4957,0.30952
4958,3.9798
4959,2.3378
4960,1.2628
4961,6.3375
4962,1.9353
4963,1.0738
4964,3.272
4965,2.7999
4966,3.2639
4967,0.82711
4968,4.6575
4969,2.9982
4970,6.9391
4971,5.3406
4972,6.8473
4973,2.1124
4974,2.8338
4975,1.3264
4976,3.5741
4977,3.0967
4978,1.2395
4979,5.2512
4980,3.6177
4981,6.6689
4982,5.0462
4983,7.1194
4984,2.0452
4985,2.3888
4986,1.5609
4987,5.7641
4988,1.8197
4989,4.1978
4990,3.7133
4991,3.3258
4992,6.6272
4993,4.7757
4994,7.2416
4995,2.1385
4996,2.1389
4997,5.9743
4998,4.5036
4999,1.7281
5000,4.064
5001,1.9941
5002,5.961
5003,4.2497
5004,7.1536
5005,1.9066
5006,6.1795
5007,2.4122
5008,4.5961
5009,1.6451
5010,5.4566
5011,3.7685
5012,1.8927
5013,3.8799
5014,6.9653
5015,1.6746
5016,6.0439
5017,2.2939
5018,4.3788
5019,1.3948
5020,5.1778
5021,3.4049
5022,6.7622
5023,1.7123
5024,3.6271
5025,3.1872
5026,1.5185
5027,1.2444
5028,4.6208
5029,3.1814
5030,5.3994
5031,2.0677
5032,5.9209
5033,3.2713
5034,1.2262
5035,1.5345
5036,2.328
5037,0.80989
5038,1.8711
5039,4.1505
5040,1.116
5041,2.7545
5042,1.8284
5043,4.3064
5044,4.9402
5045,1.2018
5046,0.39777
5047,1.2954
5048,1.0717
5049,3.5842
5050,3.0786
5051,0.79649
5052,0.98465
5053,1.3531
5054,2.003
5055,2.5139
5056,3.2993
5057,2.1126
5058,1.8086
5059,0.83364
5060,0.22337
5061,0.22538
5062,0.75925
5063,0.70168
5064,0.54399
5065,1.2098
5066,1.5056
5067,1.1798
5068,0.62855
5069,0.6645
5070,0.81855
5071,0.6978
5072,0.5689
5073,0.18595
5074,0.29797
5075,0.61096
5076,1.0191
5077,0.61025
5078,0.53396
5079,0.48834
5080,0.28485
5081,0.16851
5082,0.61913
5083,0.71853
5084,1.1586
5085,0.41337
5086,0.38521
5087,0.77455
5088,0.80961
5089,0.47439
5090,0.47702
5091,0.36551
5092,0.63471
5093,0.75269
5094,0.32621
5095,1.2006
5096,0.87624
5097,0.2606
5098,0.30173
5099,0.45222
5100,0.18633
5101,0.34334
5102,8.81E-02
5103,0.30604
5104,0.30045
5105,0.18883
5106,0.25618
5107,0.49386
5108,1.1321
5109,0.35752
5110,7.9593
5111,1.8049
5112,0.4717
5113,2.4018
5114,1.2063
5115,0.78295
5116,3.0984
5117,9.47E-02
5118,0.74838
5119,2.4059
5120,2.433
5121,0.75276
5122,1.1284
5123,5.3672
5124,3.5152
5125,1.0155
5126,2.3858
5127,1.3916
5128,6.84E-02
5129,0.11235
5130,0.10854
5131,0.23104
5132,0.27634
5133,3.72E-02
5134,1.68E-02
5135,9.40E-03
5136,0.12841
5137,1.80E-02
5138,1.46E-02
5139,2.19E-02
5140,3.32E-02
5141,0.13418
5142,0.21566
5143,0.17477
5144,0.18395
5145,0.31019
5146,0.31047
5147,0.10638
5148,0.16831
5149,0.19032
5150,0.15494
5151,0.19183
5152,0.18918
5153,0.19906
5154,5.08E-02
5155,0.17278
5156,0.15321
5157,0.10944
5158,0.15274
5159,0.32178
5160,0.35851
5161,0.31807
5162,0.57865
5163,8.19E-02
5164,0.65457
5165,0.72971
5166,0.1148
5167,0.74833
5168,0.74948
5169,0.17992
5170,0.33417
5171,0.66687
5172,1.6618
5173,1.9343
5174,1.9268
5175,1.7426
5176,1.9385
5177,1.7423
5178,1.8113
5179,1.7878
5180,1.7664
5181,1.7629
5182,1.5435
5183,1.7071
5184,1.1895
5185,1.5699
5186,0.67502
5187,1.4141
5188,0.21514
5189,1.1999
5190,0.49367
5191,0.42425
5192,0.25521
5193,0.46652
5194,0.54791
5195,0.67772
5196,0.62516
5197,0.7231
5198,0.64864
5199,0.67022
5200,0.68351
5201,0.90045
5202,0.73965
5203,0.74398
5204,0.47647
5205,0.40008
5206,0.58743
5207,0.36356
5208,0.50875
5209,4.2177
5210,3.6746
5211,0.8602
5212,2.748
5213,1.7552
5214,1.3746
5215,4.5449
5216,0.15269
5217,0.56861
5218,0.49103
5219,1.9822
5220,0.44986
5221,0.17431
5222,8.18E-02
5223,3.7745
5224,1.9451
5225,0.47386
5226,0.21058
5227,0.97998
5228,0.34764
5229,0.49889
5230,0.30947
5231,0.80744
5232,1.128
5233,1.4642
5234,1.6007
5235,1.6704
5236,1.4046
5237,2.06E-02
5238,1.54E-02
5239,2.4119
5240,0.7479
5241,0.42738
5242,0.76139
5243,0.4383
5244,2.6432
5245,1.5327
5246,2.6606
5247,2.6944
5248,0.91363
5249,1.6311
5250,2.0653
5251,2.1497
5252,3.1221
5253,2.7765
5254,9.24E-02
5255,4.1184
5256,0.55076
5257,2.0237
5258,0.45627
5259,8.61E-02
5260,0.22304
5261,0.10625
5262,2.0537
5263,0.47213
5264,0.2064
5265,1.5823
5266,0.54087
5267,2.3688
5268,1.4725
5269,0.451
5270,0.21826
5271,1.6278
5272,0.35692
5273,0.4352
5274,0.38548
5275,1.145
5276,9.81E-02
5277,1.8167
5278,2.2715
5279,0.73573
5280,1.5359
5281,0.68537
5282,4.71E-02
5283,0.34863
5284,1.0081
5285,1.6571
5286,0.6977
5287,0.23269
5288,2.238
5289,0.8221
5290,4.8783
5291,0.18519
5292,0.37141
5293,0.72688
5294,0.85885
5295,0.22453
5296,0.13006
5297,0.964
5298,0.16527
5299,6.32E-02
5300,0.31153
5301,2.6322
5302,1.0185
5303,0.21988
5304,1.1573
5305,0.59562
5306,1.3165
5307,1.854
5308,0.18984
5309,0.11455
5310,0.72107
5311,0.16891
5312,2.1858
5313,0.17394
5314,1.0534
5315,0.2314
5316,0.40429
5317,0.70152
5318,0.34778
5319,0.19483
5320,0.20227
5321,0.52555
5322,0.38025
5323,0.7215
5324,0.50941
5325,0.39297
5326,0.48348
5327,0.80711
5328,0.72203
5329,0.28325
5330,0.37467
5331,0.86801
5332,1.6579
5333,0.11604
5334,1.0637
5335,1.2201
5336,3.5625
5337,0.26299
5338,0.49415
5339,2.1351
5340,0.15855
5341,2.378
5342,3.7361
5343,2.784
5344,0.81912
5345,0.49534
5346,1.105
5347,0.70255
5348,0.335
5349,1.1758
5350,1.4681
5351,0.54209
5352,0.32328
5353,0.14683
5354,0.78906
5355,2.4822
5356,1.6647
5357,1.2652
5358,1.4559
5359,0.35333
5360,6.15E-02
5361,0.39306
5362,6.84E-02
5363,2.1307
5364,0.43803
5365,0.52478
5366,1.373
5367,1.6489
5368,1.4968
5369,0.24755
5370,1.5608
5371,1.1089
5372,0.6898
5373,0.42827
5374,0.86389
5375,1.8551
5376,0.13832
5377,0.11495
5378,0.37196
5379,0.41391
5380,0.37429
5381,0.86076
5382,0.77818
5383,0.13733
5384,0.29706
5385,0.30806
5386,0.41471
5387,0.80698
5388,0.2452
5389,3.8632
5390,2.1138
5391,3.6776
5392,0.97039
5393,0.45535
5394,5.87E-02
5395,1.0565
5396,3.8196
5397,2.4761
5398,3.4864
5399,6.4948
5400,5.7337
5401,4.2206
5402,5.2715
5403,3.9606
5404,3.3483
5405,5.5494
5406,3.2887
5407,2.9777
5408,2.7957
5409,2.0151
5410,4.6579
5411,3.0144
5412,5.1838
5413,3.8594
5414,3.5445
5415,2.6328
5416,3.4389
5417,2.0678
5418,2.7197
5419,2.6505
5420,1.6902
5421,1.8018
5422,1.0074
5423,1.606
5424,1.5176
5425,1.2645
5426,3.406
5427,2.6108
5428,2.689
5429,3.1858
5430,0.76752
5431,0.91533
5432,0.87543
5433,0.8378
5434,0.71525
5435,0.80148
5436,1.5198
5437,1.2868
5438,1.6209
5439,0.42974
5440,0.39451
5441,0.66471
5442,0.59475
5443,0.6218
5444,0.38612
5445,0.91614
5446,0.96001
5447,0.26711
5448,0.49642
5449,2.1425
5450,1.6173
5451,1.24
5452,1.239
5453,0.97569
5454,5.3908
5455,4.7211
5456,6.7711
5457,6.4499
5458,6.5426
5459,5.684
5460,5.5287
5461,1.9266
5462,0.66705
5463,0.76881
5464,0.65034
5465,0.72507
5466,2.1873
5467,1.3752
5468,0.58936
5469,0.96698
5470,0.55501
5471,1.0212
5472,1.7467
5473,2.5541
5474,1.9575
5475,2.9664
5476,1.6766
5477,1.969
5478,2.2741
5479,0.35178
5480,0.43111
5481,0.7261
5482,0.386
5483,0.15474
5484,0.52193
5485,0.44571
5486,2.0939
5487,1.5283
5488,2.6595
5489,1.8019
5490,1.9027
5491,3.4493
5492,1.443
5493,1.758
5494,1.432
5495,1.731
5496,2.8822
5497,1.5785
5498,1.9638
5499,1.3306
5500,2.0275
5501,0.57985
5502,1.7459
5503,2.0116
5504,1.0254
5505,2.0501
5506,0.94592
5507,0.73524
5508,0.3897
5509,1.9097
5510,1.2111
5511,1.0259
5512,5.37E-02
5513,0.10333
5514,0.14709
5515,7.07E-02
5516,4.67E-02
5517,4.36E-02
5518,5.76E-02
5519,0.12836
5520,8.17E-02
5521,7.16E-02
5522,0.10235
5523,8.03E-02
5524,0.10192
5525,0.16073
5526,0.15007
5527,7.65E-02
5528,8.99E-02
5529,6.80E-02
5530,3.62E-02
5531,5.76E-02
5532,0.13393
5533,9.53E-02
5534,0.12804
5535,0.22555
5536,0.16608
5537,0.15395
5538,0.10666
5539,0.18935
5540,0.40587
5541,0.12792
5542,0.20174
5543,0.19223
5544,0.8542
5545,0.15642
5546,0.1214
5547,0.14421
5548,0.12784
5549,0.44543
5550,2.3732
5551,0.11749
5552,0.9013
5553,0.22372
5554,0.29698
5555,0.19225
5556,0.64765
5557,0.19939
5558,5.31E-02
5559,4.86E-02
5560,0.1141
5561,8.88E-02
5562,6.50E-02
5563,7.23E-02
5564,8.15E-02
5565,3.93E-02
5566,6.49E-02
5567,4.19E-02
5568,4.18E-02
5569,5.81E-02
5570,7.70E-02
5571,2.42E-02
5572,2.05E-02
5573,6.15E-02
5574,2.04E-02
5575,2.94E-02
5576,4.65E-02
5577,6.56E-02
5578,9.61E-02
5579,0.26832
5580,0.39682
5581,0.25925
5582,7.60E-02
5583,0.10919
5584,0.11148
5585,0.26148
5586,6.04E-02
5587,5.26E-02
5588,7.27E-02
5589,9.34E-02
5590,0.10925
5591,0.14659
5592,0.25386
5593,8.04E-02
5594,2.48E-02
5595,2.25E-02
5596,3.37E-02
5597,1.99E-02
5598,6.00E-02
5599,6.82E-02
5600,0.4595
5601,0.39006
5602,0.58926
5603,0.5532
5604,0.27226
5605,0.33553
5606,0.30528
5607,0.38378
5608,0.5785
5609,0.62808
5610,2.2516
5611,1.4832
5612,0.43006
5613,0.61271
5614,0.33492
5615,0.34014
5616,0.39221
5617,0.28459
5618,0.25241
5619,0.42891
5620,0.26926
5621,1.0059
5622,0.51489
5623,0.43482
5624,0.55023
5625,1.486
5626,0.59474
5627,0.43639
5628,0.64409
5629,0.40111
5630,0.45839
5631,0.63733
5632,0.48065
5633,0.34938
5634,0.47359
5635,0.60625
5636,0.25108
5637,0.20584
5638,0.16328
5639,0.3747
5640,0.28449
5641,0.27643
5642,0.94775
5643,0.25718
5644,0.50006
5645,0.31535
5646,0.3023
5647,0.46509
5648,0.58989
5649,0.79263
5650,0.69434
5651,1.1039
5652,1.0599
5653,0.89933
5654,0.65807
5655,0.79161
5656,0.89797
5657,0.60496
5658,1.0261
5659,1.0427
5660,0.55203
5661,0.72919
5662,0.83127
5663,0.35991
5664,0.91784
5665,0.44836
5666,0.72819
5667,0.73442
5668,0.4935
5669,0.42156
5670,0.1852
5671,0.25239
5672,0.13907
5673,0.13658
5674,0.35085
5675,0.25022
5676,4.77E-02
5677,3.23E-02
5678,4.18E-02
5679,7.65E-02
5680,2.2924
5681,3.2355
5682,2.2411
5683,3.2905
5684,1.9421
5685,3.0358
5686,2.6357
5687,2.9306
5688,0.1589
5689,0.16615
5690,0.25062
5691,0.53219
5692,9.38E-02
5693,3.72E-02
5694,4.22E-02
5695,5.70E-02
5696,5.98E-02
5697,5.47E-02
5698,0.12314
5699,7.27E-02
5700,9.37E-02
5701,3.09E-02
5702,2.08E-02
5703,2.69E-02
5704,4.05E-02
5705,5.38E-02
5706,6.05E-02
5707,7.33E-02
5708,0.40216
5709,0.22165
5710,0.90407
5711,0.31145
5712,0.42298
5713,0.54036
5714,0.70493
5715,8.62E-02
5716,0.13918
5717,8.25E-02
5718,7.45E-02
5719,0.57341
5720,7.62E-02
5721,3.48E-02
5722,4.51E-02
5723,2.79E-02
5724,4.48E-02
5725,6.51E-02
5726,0.16391
5727,0.82371
5728,0.15807
5729,0.2593
5730,0.5832
5731,0.74474
5732,0.25402
5733,0.45968
5734,5.43E-02
5735,5.98E-02
5736,0.11533
5737,1.6931
5738,2.7677
5739,1.4001
5740,2.5502
5741,2.6471
5742,4.51E-02
5743,0.1154
5744,7.23E-02
5745,0.15548
5746,0.13757
5747,0.14556
5748,0.41366
5749,0.34131
5750,0.24592
5751,1.52E-02
5752,1.54E-02
5753,4.23E-02
5754,0.13198
5755,0.41264
5756,0.18872
5757,0.10956
5758,0.11624
5759,0.16085
5760,0.41676
5761,0.13472
5762,0.23484
5763,0.37511
5764,0.10498
5765,9.41E-02
5766,0.13194
5767,0.39702
5768,0.44813
5769,0.54565
5770,0.64112
5771,0.77619
5772,1.1859
5773,0.51736
5774,0.10311
5775,0.25257
5776,0.13475
5777,0.10533
5778,7.72E-02
5779,0.56005
5780,5.47E-02
5781,2.80E-02
5782,4.44E-02
5783,3.68E-02
5784,4.52E-02
5785,1.86E-02
5786,3.46E-02
5787,3.15E-02
5788,4.28E-02
5789,5.51E-02
5790,6.76E-02
5791,6.07E-02
5792,7.25E-02
5793,0.11463
5794,8.72E-02
5795,1.3762
5796,1.2721
5797,1.4995
5798,1.4939
5799,1.1364
5800,1.0057
5801,1.1614
5802,1.3465
5803,1.5341
5804,1.0274
5805,1.17
5806,1.1243
5807,1.2113
5808,1.205
5809,1.6795
5810,0.33797
5811,0.23847
5812,0.21106
5813,0.48595
5814,0.13116
5815,3.23E-02
5816,4.15E-02
5817,1.1239
5818,1.4668
5819,1.4979
5820,1.0783
5821,1.1318
5822,6.43E-02
5823,9.43E-02
5824,6.31E-02
5825,8.28E-02
5826,7.49E-02
5827,0.12211
5828,0.16611
5829,8.80E-02
5830,7.73E-02
5831,0.11929
5832,3.3296
5833,1.5953
5834,1.6922
5835,1.6689
5836,1.9824
5837,2.4561
5838,2.065
5839,0.21108
5840,0.24211
5841,0.64596
5842,0.51228
5843,0.35763
5844,0.5789
5845,0.63714
5846,0.32751
5847,8.40E-02
5848,9.46E-02
5849,4.70E-02
5850,4.88E-02
5851,0.10697
5852,0.21502
5853,5.04E-02
5854,5.48E-02
5855,7.02E-02
5856,0.10593
5857,0.20972
5858,6.97E-02
5859,0.40585
5860,8.44E-02
5861,0.27939
5862,0.26922
5863,0.12901
5864,0.22865
5865,2.41E-02
5866,3.27E-02
5867,3.06E-02
5868,2.95E-02
5869,2.24E-02
5870,9.48E-02
5871,4.35E-02
5872,0.39365
5873,0.14177
5874,0.14597
5875,0.14751
5876,0.13803
5877,0.16321
5878,1.352
5879,0.42702
5880,0.2016
5881,0.18076
5882,0.27521
5883,0.28258
5884,0.29474
5885,0.62661
5886,1.4189
5887,0.35846
5888,0.11967
5889,4.07E-02
5890,2.76E-02
5891,7.52E-02
5892,0.11389
5893,4.15E-02
5894,0.49347
5895,0.39736
5896,0.15566
5897,1.2392
5898,0.11228
5899,6.65E-02
5900,0.13182
5901,0.5116
5902,0.29488
5903,0.18267
5904,0.39572
5905,0.27011
5906,0.1038
5907,0.13336
5908,0.15342
5909,0.20257
5910,0.38814
5911,2.5861
5912,2.0696
5913,3.3695
5914,0.55262
5915,1.2869
5916,1.0214
5917,0.65274
5918,1.0289
5919,0.87624
5920,0.74476
5921,1.413
5922,1.1865
5923,1.0462
5924,0.91511
5925,2.65E-02
5926,2.01E-02
5927,8.48E-02
5928,3.75E-02
5929,4.72E-02
5930,2.59E-02
5931,1.93E-02
5932,9.05E-02
5933,3.90E-02
5934,6.48E-02
5935,4.53E-02
5936,0.10782
5937,5.62E-02
5938,7.27E-02
5939,0.25675
5940,0.2555
5941,0.25807
5942,0.12548
5943,0.20568
5944,7.85E-02
5945,8.22E-02
5946,9.65E-02
5947,7.47E-02
5948,4.26E-02
5949,0.80131
5950,1.3045
5951,0.87879
5952,0.9176
5953,6.84E-02
5954,4.95E-02
5955,4.53E-02
5956,4.18E-02
5957,6.74E-02
5958,5.22E-02
5959,8.56E-02
5960,5.18E-02
5961,4.94E-02
5962,4.34E-02
5963,5.51E-02
5964,6.63E-02
5965,8.96E-02
5966,0.54501
5967,1.1619
5968,0.91398
5969,0.51546
5970,0.73213
5971,4.79E-02
5972,4.09E-02
5973,5.08E-02
5974,5.90E-02
5975,5.26E-02
5976,7.15E-02
5977,4.71E-02
5978,6.42E-02
5979,2.30E-02
5980,2.66E-02
5981,1.89E-02
5982,2.92E-02
5983,6.07E-02
5984,0.12087
5985,4.44E-02
5986,1.6558
5987,1.6631
5988,1.785
5989,1.7756
5990,1.4074
5991,1.1756
5992,1.3156
5993,1.3587
5994,1.2636
5995,1.4257
5996,1.761
5997,1.7169
5998,1.395
5999,1.3019
6000,0.49326
6001,0.27341
6002,0.26339
6003,0.2196
6004,0.33857
6005,1.1203
6006,0.19106
6007,0.23601
6008,4.52E-02
6009,0.17234
6010,6.45E-02
6011,0.24307
6012,9.32E-02
6013,0.19573
6014,0.34199
6015,0.53296
6016,0.797
6017,0.40677
6018,0.61508
6019,1.7775
6020,1.4367
6021,1.6685
6022,1.3661
6023,1.283
6024,7.42E-02
6025,6.49E-02
6026,6.60E-02
6027,0.10105
6028,5.68E-02
6029,4.12E-02
6030,3.93E-02
6031,3.65E-02
6032,6.24E-02
6033,4.19E-02
6034,8.41E-02
6035,4.58E-02
6036,7.09E-02
6037,0.18754
6038,0.81731
6039,0.26141
6040,0.5698
6041,0.3142
6042,0.40436
6043,0.67957
6044,0.3366
6045,0.54705
6046,0.35585
6047,0.36328
6048,1.0587
6049,0.17592
6050,0.20552
6051,1.80E-02
6052,2.64E-02
6053,1.72E-02
6054,1.83E-02
6055,4.00E-02
6056,1.22E-02
6057,8.99E-03
6058,8.04E-03
6059,1.24E-02
6060,1.61E-02
6061,1.34E-02
6062,5.10E-02
6063,3.90E-02
6064,7.30E-02
6065,3.11E-02
6066,4.44E-02
6067,1.74E-02
6068,2.70E-02
6069,1.11E-02
6070,9.11E-03
6071,1.73E-02
6072,5.14E-02
6073,3.74E-02
6074,6.96E-03
6075,9.61E-03
6076,1.31E-02
6077,1.4855
6078,0.95035
6079,1.2721
6080,1.1569
6081,1.0646
6082,0.835
6083,0.12617
6084,7.71E-02
6085,7.68E-02
6086,5.22E-02
6087,8.82E-02
6088,0.13996
6089,8.76E-02
6090,0.1023
6091,0.10468
6092,0.11663
6093,0.19094
6094,0.10168
6095,7.66E-02
6096,0.12114
6097,0.11168
6098,7.72E-02
6099,0.18777
6100,0.12871
6101,7.60E-02
6102,9.85E-02
6103,0.10141
6104,9.39E-02
6105,0.13922
6106,0.10329
6107,2.38E-02
6108,1.58E-02
6109,1.65E-02
6110,4.01E-02
6111,2.09E-02
6112,2.11E-02
6113,2.21E-02
6114,3.61E-02
6115,4.63E-02
6116,0.156
6117,0.13873
6118,0.1457
6119,0.12353
6120,0.21856
6121,1.41E-02
6122,1.73E-02
6123,1.58E-02
6124,2.45E-02
6125,1.52E-02
6126,3.09E-02
6127,1.94E-02
6128,1.24E-02
6129,1.62E-02
6130,1.39E-02
6131,2.91E-02
6132,2.34E-02
6133,2.09E-02
6134,3.54E-02
6135,0.18224
6136,0.28472
6137,0.18224
6138,0.47449
6139,0.36289
6140,0.47163
6141,0.55812
6142,0.30432
6143,6.24E-02
6144,9.66E-02
6145,5.89E-02
6146,8.49E-02
6147,0.25031
6148,0.20704
6149,0.20737
6150,0.10906
6151,9.86E-02
6152,0.1324
6153,0.13892
6154,0.1288
6155,0.26912
6156,0.21847
6157,0.1406
6158,6.94E-02
6159,7.06E-02
6160,0.11305
6161,0.27322
6162,8.28E-02
6163,0.22986
6164,9.28E-02
6165,1.8251
6166,1.8848
6167,1.9185
6168,1.9587
6169,1.5215
6170,1.5617
6171,1.8028
6172,1.8496
6173,1.4583
6174,9.01E-02
6175,9.31E-02
6176,0.25499
6177,9.66E-02
6178,4.64E-02
6179,3.39E-02
6180,4.05E-02
6181,6.62E-02
6182,1.0203
6183,0.4411
6184,0.48499
6185,0.7476
6186,0.54094
6187,0.81726
6188,0.58814
6189,1.0718
6190,1.5818
6191,1.3594
6192,1.2371
6193,0.91171
6194,0.20064
6195,0.44577
6196,0.33674
6197,0.30824
6198,0.22015
6199,0.48043
6200,0.31401
6201,7.83E-02
6202,8.17E-02
6203,0.14662
6204,8.69E-02
6205,0.16248
6206,0.22453
6207,8.73E-02
6208,5.21E-02
6209,3.54E-02
6210,5.82E-02
6211,5.41E-02
6212,0.22892
6213,0.13687
6214,0.10295
6215,0.29664
6216,0.23621
6217,0.16862
6218,0.53449
6219,0.27592
6220,0.13255
6221,0.10391
6222,0.34064
6223,0.17419
6224,0.17607
6225,0.38123
6226,0.51844
6227,0.80202
6228,0.91309
6229,0.64537
6230,0.84048
6231,0.75086
6232,0.65423
6233,0.44196
6234,0.34367
6235,0.35094
6236,0.53662
6237,0.71139
6238,0.45158
6239,0.16782
6240,0.14322
6241,0.17997
6242,0.34022
6243,0.19301
6244,0.21311
6245,0.23023
6246,0.16064
6247,0.13906
6248,0.16704
6249,0.3304
6250,0.21058
6251,0.17086
6252,0.13541
6253,0.21863
6254,0.71834
6255,1.0564
6256,1.2884
6257,1.1021
6258,0.77166
6259,0.96016
6260,0.98389
6261,0.39344
6262,0.34654
6263,0.55306
6264,0.46867
6265,0.80048
6266,0.7493
6267,0.77206
6268,0.50003
6269,1.7562
6270,1.9532
6271,1.8517
6272,1.502
6273,1.4682
6274,1.7686
6275,1.3988
6276,1.0895
6277,1.0102
6278,6.13E-02
6279,0.10983
6280,3.19E-02
6281,3.80E-02
6282,0.13133
6283,5.40E-02
6284,0.10583
6285,0.11859
6286,0.116
6287,4.78E-02
6288,0.14192
6289,0.2474
6290,0.32398
6291,0.30942
6292,0.31849
6293,0.31784
6294,0.49934
6295,0.34546
6296,0.33064
6297,0.36411
6298,0.17586
6299,0.23738
6300,0.17921
6301,0.27143
6302,0.24485
6303,0.19995
6304,0.20724
6305,0.23322
6306,0.15106
6307,0.25801
6308,0.20205
6309,0.20428
6310,0.26479
6311,0.31612
6312,0.23711
6313,0.5069
6314,0.33392
6315,0.42102
6316,0.32228
6317,0.3652
6318,0.1582
6319,0.16741
6320,0.14176
6321,0.20765
6322,0.16331
6323,0.40034
6324,0.13727
6325,0.14637
6326,0.17804
6327,0.33887
6328,0.36656
6329,0.26564
6330,0.16877
6331,0.17905
6332,0.22678
6333,0.26435
6334,0.20316
6335,0.21254
6336,0.19542
6337,0.29251
6338,0.2894
6339,0.24188
6340,0.19765
6341,0.16183
6342,0.2061
6343,0.19069
6344,0.22321
6345,0.30351
6346,0.33166
6347,0.31904
6348,0.3445
6349,0.24279
6350,0.28828
6351,0.28841
6352,0.22005
6353,0.30382
6354,0.1678
6355,0.12401
6356,0.21113
6357,0.16116
6358,4.98E-02
6359,7.25E-02
6360,7.72E-02
6361,3.64E-02
6362,7.17E-02
6363,6.55E-02
6364,0.11976
6365,5.44E-02
6366,0.17655
6367,0.12946
6368,0.23804
6369,0.1366
6370,0.12405
6371,0.18251
6372,0.2292
6373,0.20161
6374,0.2473
6375,0.17816
6376,0.13309
6377,0.17374
6378,0.26292
6379,0.19181
6380,0.23851
6381,0.26323
6382,0.19415
6383,0.18989
6384,0.27912
6385,7.17E-02
6386,4.69E-02
6387,0.13334
6388,0.13666
6389,0.15592
6390,0.13212
6391,0.23095
6392,0.20458
6393,0.18882
6394,0.19268
6395,0.19328
6396,0.19629
6397,0.23161
6398,0.22441
6399,1.4547
6400,1.7297
6401,1.3433
6402,8.15E-02
6403,7.28E-02
6404,5.30E-02
6405,0.10839
6406,0.10407
6407,0.14027
6408,0.10386
6409,0.11893
6410,0.53846
6411,1.088
6412,0.52042
6413,0.80085
6414,0.63181
6415,0.96814
6416,0.64406
6417,0.10831
6418,0.2612
6419,5.05E-02
6420,0.37463
6421,0.17869
6422,0.38686
6423,0.14711
6424,1.6022
6425,1.8777
6426,1.7922
6427,1.9062
6428,1.484
6429,1.6388
6430,1.0912
6431,1.3126
6432,1.569
6433,1.2606
6434,1.4152
6435,1.1185
6436,0.14168
6437,9.15E-02
6438,0.12015
6439,0.14497
6440,0.15854
6441,0.14873
6442,0.1986
6443,0.12922
6444,0.12124
6445,0.17321
6446,1.9715
6447,1.9623
6448,2.0475
6449,1.5408
6450,1.7931
6451,1.696
6452,8.38E-02
6453,0.10662
6454,0.12595
6455,0.21808
6456,9.27E-02
6457,0.11933
6458,0.13835
6459,0.13256
6460,5.92E-02
6461,6.69E-02
6462,0.18415
6463,0.16128
6464,0.11377
6465,8.00E-02
6466,6.64E-02
6467,9.42E-02
6468,0.21819
6469,0.17285
6470,0.21513
6471,0.21633
6472,0.29766
6473,0.19785
6474,0.10268
6475,0.10276
6476,0.18898
6477,8.56E-02
6478,8.96E-02
6479,1.9174
6480,2.0952
6481,2.0514
6482,1.5762
6483,1.8398
6484,0.93736
6485,1.5413
6486,1.3853
6487,1.0218
6488,1.1321
6489,1.1552
6490,1.4437
6491,1.2527
6492,1.0141
6493,0.32812
6494,0.69349
6495,0.37513
6496,0.52342
6497,0.85701
6498,0.80535
6499,0.69404
6500,7.50E-02
6501,6.04E-02
6502,0.12717
6503,5.27E-02
6504,5.17E-02
6505,5.01E-02
6506,4.34E-02
6507,8.27E-02
6508,0.17043
6509,0.10277
6510,0.11201
6511,0.26917
6512,0.12932
6513,0.43414
6514,5.38E-02
6515,0.11382
6516,0.14134
6517,0.27014
6518,0.22498
6519,0.17046
6520,8.05E-02
6521,7.73E-02
6522,8.73E-02
6523,6.27E-02
6524,7.68E-02
6525,6.12E-02
6526,6.28E-02
6527,9.75E-02
6528,8.20E-02
6529,5.21E-02
6530,7.62E-02
6531,5.38E-02
6532,0.17759
6533,6.17E-02
6534,6.07E-02
6535,7.12E-02
6536,0.12262
6537,0.27725
6538,9.48E-02
6539,0.1145
6540,6.70E-02
6541,0.52313
6542,2.86E-02
6543,6.29E-02
6544,0.22405
6545,0.10827
6546,0.3571
6547,0.21534
6548,0.12629
6549,1.0267
6550,0.50425
6551,0.81616
6552,0.63672
6553,0.9741
6554,0.49415
6555,0.83239
6556,0.80402
6557,1.6633
6558,1.9517
6559,1.4363
6560,1.7312
6561,0.27397
6562,0.2722
6563,7.23E-02
6564,9.89E-02
6565,0.40407
6566,0.35753
6567,0.37806
6568,0.36961
6569,9.55E-02
6570,0.1833
6571,1.5043
6572,1.04
6573,1.4158
6574,0.99256
6575,1.3527
6576,1.0551
6577,1.8753
6578,1.6685
6579,1.6071
6580,0.51733
6581,0.12268
6582,9.69E-02
6583,0.14639
6584,0.24159
6585,0.47026
6586,6.84E-02
6587,0.19585
6588,0.53247
6589,0.55271
6590,1.2061
6591,0.78249
6592,0.84473
6593,0.41546
6594,0.47298
6595,0.50948
6596,0.28021
6597,0.14059
6598,2.0741
6599,2.2183
6600,2.0732
6601,1.7847
6602,1.8188
6603,1.7228
6604,2.1209
6605,2.309
6606,2.2541
6607,1.9129
6608,0.37731
6609,0.3103
6610,0.14807
6611,0.18246
6612,0.33188
6613,0.12323
6614,0.39175
6615,0.12396
6616,0.20697
6617,1.1433
6618,1.7926
6619,1.6209
6620,1.2189
6621,1.5715
6622,1.379
6623,0.46388
6624,0.8583
6625,1.0199
6626,0.78504
6627,0.10752
6628,0.13945
6629,0.11766
6630,0.54458
6631,0.19652
6632,0.44518
6633,0.17081
6634,0.70823
6635,0.48049
6636,1.9101
6637,2.2133
6638,1.8659
6639,1.6713
6640,8.02E-02
6641,0.38345
6642,0.47769
6643,0.18896
6644,0.25247
6645,0.12129
6646,1.3371
6647,2.0396
6648,1.8676
6649,1.4361
6650,1.6869
6651,1.499
6652,0.58426
6653,1.0382
6654,0.83456
6655,0.82892
6656,1.2925
6657,1.1007
6658,8.17E-02
6659,0.68547
6660,0.27795
6661,0.49098
6662,0.48478
6663,7.65E-02
6664,0.28379
6665,0.47622
6666,5.68E-02
6667,0.41376
6668,0.25213
6669,2.3025
6670,2.3912
6671,2.5527
6672,2.5758
6673,2.0525
6674,2.0526
6675,1.866
6676,2.155
6677,2.4268
6678,1.9047
6679,1.9026
6680,1.804
6681,0.11068
6682,0.53323
6683,0.5179
6684,0.58628
6685,0.30167
6686,0.304
6687,0.92792
6688,8.83E-02
6689,0.29963
6690,0.50551
6691,9.74E-02
6692,0.49886
6693,0.30487
6694,1.8669
6695,1.3784
6696,1.163
6697,0.95019
6698,0.9687
6699,1.0724
6700,1.0343
6701,1.158
6702,1.619
6703,1.1508
6704,1.3788
6705,1.518
6706,2.4268
6707,1.661
6708,2.1336
6709,2.5051
6710,1.9057
6711,1.663
6712,1.8103
6713,2.5024
6714,2.1704
6715,1.9936
6716,1.9987
6717,1.8031
6718,2.3277
6719,2.6759
6720,2.8485
6721,2.5184
6722,2.1544
6723,2.0556
6724,1.5667
6725,2.1873
6726,1.6917
6727,1.8199
6728,1.7207
6729,0.50736
6730,0.62395
6731,0.34382
6732,0.72574
6733,1.2647
6734,0.93656
6735,1.3939
6736,1.2971
6737,8.19E-02
6738,0.85236
6739,0.37834
6740,0.53252
6741,0.14901
6742,0.1159
6743,0.32547
6744,0.60783
6745,0.58659
6746,0.68331
6747,0.32356
6748,0.29669
6749,0.32562
6750,0.55974
6751,5.18E-02
6752,0.4781
6753,0.25786
6754,0.2835
6755,0.59246
6756,0.75207
6757,0.36723
6758,0.39578
6759,2.8645
6760,2.7787
6761,2.1758
6762,2.0795
6763,0.39715
6764,0.27482
6765,0.37852
6766,0.42427
6767,0.4462
6768,1.6417
6769,1.639
6770,1.0772
6771,0.71725
6772,0.96248
6773,1.1759
6774,1.3207
6775,2.1084
6776,2.4822
6777,2.5955
6778,2.0831
6779,1.7895
6780,2.7046
6781,2.9439
6782,3.1744
6783,2.8711
6784,2.5391
6785,2.243
6786,1.8817
6787,2.5434
6788,2.208
6789,1.9125
6790,1.5375
6791,2.5896
6792,2.0612
6793,2.6337
6794,2.0788
6795,1.7858
6796,0.61888
6797,0.52414
6798,1.4961
6799,0.85549
6800,1.5103
6801,0.70859
6802,1.2192
6803,0.91179
6804,2.0478
6805,1.5282
6806,1.0639
6807,1.718
6808,0.90869
6809,1.4244
6810,0.88161
6811,6.84E-02
6812,1.0488
6813,0.50305
6814,9.58E-02
6815,0.21544
6816,0.59085
6817,0.20311
6818,0.44002
6819,0.1849
6820,0.41175
6821,0.17958
6822,0.1948
6823,0.50446
6824,0.29125
6825,0.35381
6826,0.47997
6827,0.85927
6828,0.32548
6829,0.29205
6830,0.37519
6831,0.40768
6832,0.11446
6833,1.0531
6834,0.11625
6835,0.26495
6836,0.38293
6837,0.27325
6838,0.44319
6839,0.42248
6840,0.44446
6841,0.26111
6842,0.34418
6843,0.46954
6844,0.43063
6845,0.37439
6846,0.43181
6847,2.9705
6848,3.0834
6849,2.4527
6850,2.1576
6851,3.1984
6852,3.1267
6853,3.3948
6854,2.5658
6855,0.57012
6856,0.73052
6857,0.71751
6858,0.80817
6859,0.37096
6860,0.16419
6861,0.34418
6862,0.12113
6863,0.36799
6864,0.13995
6865,0.66755
6866,0.54473
6867,0.29074
6868,0.11784
6869,0.3152
6870,0.90511
6871,0.70107
6872,0.44166
6873,0.46543
6874,0.46716
6875,0.8919
6876,0.90749
6877,1.0197
6878,0.48422
6879,0.19799
6880,0.45136
6881,3.0081
6882,3.5111
6883,3.2049
6884,2.6773
6885,2.1851
6886,2.9063
6887,2.3748
6888,1.372
6889,2.5876
6890,1.9364
6891,2.6351
6892,2.0349
6893,2.1963
6894,0.32476
6895,1.2929
6896,0.61662
6897,1.3852
6898,0.53215
6899,1.5458
6900,1.1134
6901,2.3809
6902,1.8292
6903,1.8557
6904,1.0459
6905,0.5738
6906,0.22562
6907,0.30767
6908,0.96167
6909,0.18092
6910,0.15375
6911,1.2768
6912,0.6365
6913,0.28083
6914,1.3058
6915,0.22399
6916,0.50567
6917,0.24917
6918,0.68221
6919,0.57014
6920,0.30024
6921,0.60809
6922,0.34037
6923,0.89253
6924,0.69056
6925,0.72878
6926,0.45704
6927,1.1106
6928,0.77859
6929,0.81688
6930,0.57522
6931,0.54246
6932,3.4361
6933,3.2179
6934,3.6547
6935,2.6092
6936,2.7716
6937,0.83922
6938,1.1259
6939,0.72581
6940,1.1543
6941,0.86825
6942,0.59042
6943,0.36635
6944,0.6116
6945,3.4027
6946,3.9293
6947,3.6993
6948,2.8713
6949,3.0338
6950,2.5445
6951,3.3998
6952,2.57
6953,2.7315
6954,1.1703
6955,2.5479
6956,1.7379
6957,2.64
6958,2.108
6959,2.1115
6960,0.16275
6961,1.055
6962,0.35311
6963,1.418
6964,0.41872
6965,1.4209
6966,0.98839
6967,1.3445
6968,2.8399
6969,2.1464
6970,2.0195
6971,0.91544
6972,1.1468
6973,2.1806
6974,1.7403
6975,0.95189
6976,9.16E-02
6977,0.66209
6978,0.69976
6979,0.42723
6980,0.22807
6981,0.44906
6982,1.2663
6983,1.3044
6984,0.94488
6985,0.98101
6986,0.70289
6987,0.86786
6988,0.23128
6989,0.58437
6990,0.96926
6991,0.15401
6992,0.64928
6993,0.54157
6994,1.4979
6995,0.77894
6996,0.34777
6997,8.43E-02
6998,0.10058
6999,0.39871
7000,0.28861
7001,0.5147
7002,0.27124
7003,3.7038
7004,3.3556
7005,3.9669
7006,2.8137
7007,2.8197
7008,3.9192
7009,4.4106
7010,4.5169
7011,3.2444
7012,3.2516
7013,1.3335
7014,1.0035
7015,1.4374
7016,1.0104
7017,1.3487
7018,0.50987
7019,1.0757
7020,0.75451
7021,0.88832
7022,2.5196
7023,1.4488
7024,2.5891
7025,1.9887
7026,1.7319
7027,0.33718
7028,0.7232
7029,0.17462
7030,1.2464
7031,0.99219
7032,2.9927
7033,3.9648
7034,4.2902
7035,3.0194
7036,3.0258
7037,2.5817
7038,1.574
7039,2.5148
7040,3.2644
7041,1.2994
7042,1.8932
7043,0.89971
7044,0.71999
7045,0.32461
7046,0.72883
7047,0.78441
7048,0.4695
7049,1.2308
7050,0.90923
7051,0.91848
7052,1.2453
7053,0.97405
7054,0.65579
7055,1.0499
7056,1.3872
7057,1.115
7058,0.795
7059,1.1451
7060,0.48514
7061,0.8393
7062,0.83543
7063,0.45471
7064,0.78466
7065,0.58517
7066,0.41084
7067,4.0545
7068,3.5064
7069,4.276
7070,2.9044
7071,2.6441
7072,0.94995
7073,1.7884
7074,0.47189
7075,0.58639
7076,8.02E-02
7077,1.1726
7078,0.33896
7079,1.8869
7080,1.1747
7081,2.093
7082,0.56584
7083,0.61205
7084,1.7022
7085,0.43871
7086,0.11307
7087,1.2684
7088,3.4797
7089,2.9362
7090,3.751
7091,2.5424
7092,2.1072
7093,1.5746
7094,1.271
7095,1.673
7096,1.6243
7097,1.4907
7098,0.88244
7099,1.2176
7100,4.7792
7101,4.8888
7102,3.508
7103,4.5587
7104,4.5055
7105,3.2931
7106,2.8555
7107,4.9965
7108,4.8283
7109,3.6159
7110,0.54398
7111,2.4138
7112,1.132
7113,2.3032
7114,1.5586
7115,0.60396
7116,0.39732
7117,0.3721
7118,0.81545
7119,1.0085
7120,1.1599
7121,0.74775
7122,0.7483
7123,0.28832
7124,1.2087
7125,0.47151
7126,0.80296
7127,1.4224
7128,1.0086
7129,1.0099
7130,1.4691
7131,1.3376
7132,1.0632
7133,1.6207
7134,1.489
7135,0.88025
7136,1.2147
7137,4.3339
7138,4.42
7139,3.4552
7140,2.7103
7141,4.9406
7142,5.1826
7143,5.3102
7144,3.732
7145,3.4708
7146,1.3641
7147,0.7301
7148,1.0778
7149,0.57551
7150,0.30266
7151,0.45925
7152,2.2225
7153,2.4244
7154,1.4463
7155,0.73922
7156,0.81882
7157,0.56199
7158,0.83467
7159,0.43575
7160,3.9574
7161,4.3302
7162,3.3445
7163,2.7488
7164,1.4811
7165,1.7551
7166,2.4882
7167,1.245
7168,1.4875
7169,1.7683
7170,1.4802
7171,1.8333
7172,1.2158
7173,1.7183
7174,0.97654
7175,0.70481
7176,1.1002
7177,0.96674
7178,0.73702
7179,0.19786
7180,0.69492
7181,1.1968
7182,0.46006
7183,0.58068
7184,5.147
7185,3.565
7186,3.3034
7187,5.3927
7188,4.3031
7189,5.1922
7190,5.5137
7191,4.0223
7192,3.5575
7193,4.5321
7194,5.4801
7195,5.6334
7196,4.7743
7197,4.1453
7198,3.6785
7199,0.26235
7200,2.1596
7201,2.0164
7202,0.79382
7203,1.8735
7204,1.4146
7205,0.8445
7206,8.81E-02
7207,0.60696
7208,1.1424
7209,0.68583
7210,4.2342
7211,3.1979
7212,3.0575
7213,2.5965
7214,1.4924
7215,0.93777
7216,1.4388
7217,1.8342
7218,1.7782
7219,1.2234
7220,1.7177
7221,2.5676
7222,3.788
7223,3.1559
7224,1.9569
7225,2.6892
7226,1.5463
7227,0.95547
7228,1.2445
7229,1.427
7230,1.5636
7231,0.79806
7232,0.41801
7233,0.93721
7234,0.35449
7235,0.5137
7236,2.8087
7237,1.7425
7238,0.96216
7239,0.47008
7240,2.176
7241,0.97718
7242,0.46485
7243,0.57923
7244,1.2399
7245,1.1834
7246,0.496
7247,0.66501
7248,1.1026
7249,0.62486
7250,0.12914
7251,0.63409
7252,0.5075
7253,1.8431
7254,1.282
7255,1.9168
7256,0.77088
7257,1.2902
7258,1.1665
7259,5.6007
7260,4.7353
7261,5.5777
7262,4.1075
7263,5.4449
7264,4.0906
7265,4.0402
7266,5.0301
7267,5.4105
7268,5.3548
7269,3.9483
7270,5.7339
7271,5.6782
7272,4.2679
7273,1.8259
7274,1.1734
7275,3.0039
7276,1.7344
7277,2.9131
7278,2.1851
7279,2.0793
7280,9.14E-02
7281,0.51219
7282,1.6846
7283,0.95717
7284,1.7037
7285,1.2259
7286,1.8605
7287,1.2343
7288,1.0063
7289,0.176
7290,0.81418
7291,1.0327
7292,0.30712
7293,0.20979
7294,2.9613
7295,4.87
7296,4.1376
7297,3.3984
7298,4.0688
7299,2.5638
7300,1.1033
7301,1.348
7302,1.4791
7303,0.75248
7304,0.86193
7305,0.98979
7306,0.15264
7307,0.7577
7308,1.1333
7309,1.0132
7310,1.1347
7311,0.29815
7312,1.1656
7313,1.0021
7314,0.42129
7315,0.54576
7316,3.0681
7317,0.8799
7318,2.036
7319,2.329
7320,0.74541
7321,0.61646
7322,1.4949
7323,1.8647
7324,1.7625
7325,1.8975
7326,1.895
7327,1.1447
7328,1.2728
7329,1.6839
7330,3.9444
7331,2.8663
7332,1.4992
7333,2.863
7334,3.5348
7335,2.1349
7336,2.0295
7337,0.26397
7338,0.25733
7339,2.2637
7340,0.86585
7341,0.75901
7342,1.7445
7343,1.7774
7344,1.6116
7345,1.1526
7346,1.8991
7347,1.8964
7348,1.7333
7349,1.2744
7350,5.3206
7351,5.2661
7352,5.0557
7353,3.857
7354,3.8556
7355,4.5272
7356,5.6574
7357,4.9783
7358,5.902
7359,5.8226
7360,4.2414
7361,4.9128
7362,5.3875
7363,5.7688
7364,4.8587
7365,1.1548
7366,0.44997
7367,0.99217
7368,1.6076
7369,0.13628
7370,3.2102
7371,5.1674
7372,4.4137
7373,3.3544
7374,4.1776
7375,2.6718
7376,1.019
7377,1.0422
7378,0.79864
7379,1.0139
7380,0.13967
7381,1.0453
7382,0.81205
7383,0.88227
7384,0.30582
7385,0.44995
7386,1.1737
7387,2.3215
7388,3.1409
7389,0.88435
7390,0.73768
7391,1.6365
7392,1.2359
7393,1.4457
7394,1.5307
7395,1.5709
7396,1.3663
7397,0.91323
7398,1.0619
7399,0.18862
7400,1.8879
7401,1.9235
7402,1.831
7403,1.9288
7404,1.1746
7405,1.3229
7406,1.6347
7407,1.4309
7408,1.5018
7409,1.8909
7410,1.8947
7411,1.6573
7412,1.7272
7413,1.2918
7414,0.80861
7415,1.406
7416,1.5805
7417,1.8501
7418,1.752
7419,1.7855
7420,1.6126
7421,1.2428
7422,0.46129
7423,1.317
7424,0.37292
7425,0.80146
7426,0.83907
7427,0.50454
7428,0.65966
7429,0.26676
7430,0.3069
7431,1.2257
7432,1.4312
7433,1.089
7434,1.2569
7435,1.6054
7436,1.2631
7437,1.4315
7438,5.5557
7439,3.9758
7440,5.2131
7441,4.0046
7442,4.647
7443,4.4976
7444,6.0138
7445,5.3361
7446,6.1552
7447,5.4955
7448,5.1043
7449,4.9556
7450,6.0768
7451,5.5931
7452,5.0269
7453,4.8778
7454,1.4123
7455,2.8085
7456,1.3649
7457,3.4475
7458,2.0757
7459,3.2974
7460,0.53091
7461,0.15237
7462,0.66707
7463,2.0773
7464,0.71087
7465,1.2817
7466,1.2131
7467,1.5261
7468,0.38137
7469,0.18117
7470,3.5226
7471,4.7414
7472,3.7186
7473,4.3462
7474,4.1982
7475,1.5019
7476,2.6611
7477,3.2843
7478,1.3967
7479,0.8794
7480,3.1367
7481,1.4215
7482,1.5548
7483,1.617
7484,1.6171
7485,1.3232
7486,0.59427
7487,1.1085
7488,5.7335
7489,5.5579
7490,6.3275
7491,6.0007
7492,4.4542
7493,5.0185
7494,4.042
7495,5.5172
7496,4.1694
7497,3.9719
7498,4.535
7499,1.3952
7500,2.9666
7501,1.3461
7502,2.7653
7503,2.1054
7504,3.3262
7505,0.71518
7506,0.20875
7507,0.84287
7508,1.3194
7509,0.66426
7510,0.61512
7511,0.22111
7512,1.6964
7513,0.79394
7514,0.65648
7515,0.64337
7516,0.20562
7517,0.33091
7518,0.43947
7519,0.22803
7520,1.295
7521,1.6069
7522,1.7686
7523,1.7566
7524,1.7458
7525,1.2647
7526,1.4267
7527,0.94819
7528,1.1763
7529,0.8366
7530,0.99683
7531,1.6497
7532,1.6268
7533,1.1462
7534,1.3078
7535,3.8772
7536,5.6686
7537,5.1965
7538,4.1524
7539,3.7924
7540,4.3577
7541,1.4842
7542,1.4808
7543,0.67848
7544,0.51868
7545,0.7564
7546,9.93E-02
7547,1.9461
7548,3.1314
7549,2.767
7550,1.5916
7551,1.3554
7552,3.3326
7553,1.6123
7554,1.6867
7555,1.6799
7556,1.7025
7557,0.65703
7558,0.89351
7559,6.1095
7560,5.9644
7561,6.6122
7562,4.5625
7563,4.2465
7564,4.4352
7565,4.6677
7566,6.2864
7567,4.2381
7568,3.9222
7569,4.4487
7570,6.1395
7571,4.9032
7572,5.8913
7573,4.0876
7574,3.7715
7575,0.29908
7576,0.99638
7577,1.3697
7578,1.659
7579,1.6574
7580,1.5475
7581,1.1772
7582,0.86189
7583,0.82752
7584,0.34538
7585,2.2202
7586,1.3933
7587,0.42339
7588,0.20869
7589,0.45695
7590,0.49506
7591,0.82171
7592,0.38016
7593,0.62995
7594,0.29456
7595,1.4758
7596,1.3645
7597,0.74038
7598,0.99994
7599,0.65358
7600,1.4757
7601,1.4621
7602,3.3317
7603,2.8933
7604,2.5783
7605,0.89839
7606,0.2621
7607,1.0597
7608,1.2693
7609,0.95705
7610,1.6807
7611,1.7744
7612,0.55577
7613,0.26278
7614,0.88426
7615,2.5751
7616,3.8605
7617,3.0424
7618,2.7267
7619,1.6301
7620,1.6658
7621,1.8466
7622,1.8017
7623,1.7719
7624,1.7594
7625,0.25114
7626,0.96388
7627,0.92894
7628,0.57222
7629,1.0014
7630,1.4124
7631,1.4962
7632,1.2381
7633,0.78646
7634,0.69971
7635,0.97279
7636,3.0288
7637,2.139
7638,1.1171
7639,0.76122
7640,0.84637
7641,0.84077
7642,0.3139
7643,0.77494
7644,0.52562
7645,0.35975
7646,0.16252
7647,0.15957
7648,0.14108
7649,1.1234
7650,0.95384
7651,0.22414
7652,0.51269
7653,1.0727
7654,1.7024
7655,0.2774
7656,0.95198
7657,0.94375
7658,0.24984
7659,1.8403
7660,1.8918
7661,2.0436
7662,1.816
7663,0.13932
7664,0.70822
7665,0.8036
7666,0.96673
7667,5.1682
7668,1.7235
7669,3.6816
7670,4.6435
7671,2.8129
7672,3.7127
7673,1.9963
7674,1.8526
7675,1.8051
7676,1.7772
7677,0.23942
7678,0.97484
7679,0.9765
7680,0.77367
7681,6.5376
7682,6.8887
7683,6.2505
7684,4.4226
7685,5.3239
7686,5.3023
7687,3.423
7688,4.7558
7689,3.1817
7690,2.1222
7691,2.1198
7692,2.3393
7693,4.0802
7694,6.635
7695,5.7438
7696,4.1705
7697,5.0692
7698,1.9191
7699,2.0005
7700,2.3138
7701,2.0188
7702,0.81485
7703,0.91086
7704,0.9408
7705,1.8381
7706,0.37736
7707,1.0867
7708,0.2787
7709,1.859
7710,1.7683
7711,2.0857
7712,1.8372
7713,0.59216
7714,0.16786
7715,0.50195
7716,1.0319
7717,1.2203
7718,0.77405
7719,0.50084
7720,1.7037
7721,3.8634
7722,2.8933
7723,2.0736
7724,1.5077
7725,1.6407
7726,1.2345
7727,1.4484
7728,0.42685
7729,1.2488
7730,0.38009
7731,0.20839
7732,0.6859
7733,0.81223
7734,0.4173
7735,0.65199
7736,0.41023
7737,0.26256
7738,0.17925
7739,4.7563
7740,1.761
7741,3.8039
7742,3.8231
7743,3.7321
7744,6.3495
7745,6.0883
7746,6.9084
7747,6.3485
7748,6.3875
7749,5.4219
7750,5.3286
7751,4.7661
7752,5.7163
7753,4.7901
7754,4.6983
7755,1.8768
7756,1.7823
7757,1.7132
7758,0.98147
7759,0.78192
7760,4.2257
7761,5.4968
7762,2.9726
7763,2.8732
7764,2.7812
7765,4.5231
7766,4.4286
7767,2.2301
7768,2.1856
7769,2.6649
7770,2.2058
7771,0.23973
7772,0.98113
7773,1.1814
7774,1.7678
7775,0.59914
7776,1.472
7777,0.99254
7778,0.26371
7779,1.6867
7780,2.4147
7781,2.2687
7782,0.23165
7783,0.73236
7784,4.7568
7785,1.6369
7786,3.705
7787,3.0356
7788,3.742
7789,6.2691
7790,6.3104
7791,6.8938
7792,6.2781
7793,6.5789
7794,4.5434
7795,5.2504
7796,4.6467
7797,5.7219
7798,3.9842
7799,4.6928
7800,0.23165
7801,0.50565
7802,0.86602
7803,0.26069
7804,0.24806
7805,0.1314
7806,2.4349
7807,4.5255
7808,3.6174
7809,2.791
7810,2.0008
7811,2.438
7812,1.851
7813,1.1179
7814,1.9795
7815,0.51599
7816,0.78701
7817,1.1777
7818,1.0314
7819,0.19851
7820,0.32378
7821,0.67336
7822,0.52987
7823,1.9157
7824,1.7334
7825,1.6552
7826,0.61673
7827,0.27516
7828,0.32729
7829,0.70528
7830,0.80408
7831,0.74458
7832,4.8872
7833,6.0668
7834,3.272
7835,3.7095
7836,4.0227
7837,3.1718
7838,4.7272
7839,1.5362
7840,1.755
7841,1.6184
7842,0.89925
7843,1.7353
7844,0.86454
7845,0.78594
7846,4.6559
7847,1.3455
7848,3.4307
7849,2.925
7850,2.8494
7851,2.7015
7852,2.3909
7853,3.0604
7854,2.4806
7855,0.39624
7856,0.45044
7857,2.9139
7858,2.6777
7859,0.3116
7860,0.33363
7861,6.3404
7862,6.6457
7863,6.9487
7864,6.8993
7865,4.6046
7866,4.5368
7867,4.491
7868,6.3319
7869,5.536
7870,3.9918
7871,3.92
7872,1.3034
7873,0.77324
7874,0.20693
7875,0.48571
7876,0.39944
7877,0.9318
7878,0.70284
7879,0.35706
7880,3.1541
7881,5.1573
7882,4.3183
7883,2.7989
7884,2.5671
7885,1.7983
7886,3.4923
7887,2.6676
7888,1.14
7889,1.4031
7890,1.969
7891,1.7407
7892,1.3867
7893,0.61592
7894,0.87165
7895,0.84795
7896,5.4957
7897,6.592
7898,3.9801
7899,4.2916
7900,3.7469
7901,4.2269
7902,2.0234
7903,1.6734
7904,1.5667
7905,0.27342
7906,0.32116
7907,0.41873
7908,0.30709
7909,0.75986
7910,1.9244
7911,1.1784
7912,0.96065
7913,1.1976
7914,2.0728
7915,0.60158
7916,3.0353
7917,2.6905
7918,3.4229
7919,2.6573
7920,2.1378
7921,0.63929
7922,3.1867
7923,2.9482
7924,0.40148
7925,4.2962
7926,3.0486
7927,4.1479
7928,4.0619
7929,2.6828
7930,2.7122
7931,1.8987
7932,0.67574
7933,1.0306
7934,3.0062
7935,2.2058
7936,0.65846
7937,0.96404
7938,3.8197
7939,5.749
7940,1.2838
7941,4.9535
7942,5.8859
7943,2.9062
7944,3.3854
7945,4.1149
7946,3.3072
7947,1.7328
7948,2.0689
7949,6.1363
7950,6.8882
7951,6.8036
7952,7.0259
7953,5.9077
7954,4.528
7955,5.9998
7956,5.1931
7957,5.1085
7958,3.7257
7959,6.9831
7960,4.4837
7961,0.45905
7962,1.5813
7963,2.0784
7964,1.6546
7965,0.83206
7966,1.5617
7967,0.49768
7968,0.28551
7969,0.81506
7970,3.9357
7971,2.6109
7972,3.7999
7973,2.4204
7974,2.4707
7975,2.2079
7976,0.59192
7977,1.4413
7978,0.40742
7979,0.46439
7980,3.3349
7981,2.808
7982,3.6435
7983,2.8553
7984,0.80925
7985,2.2874
7986,0.77403
7987,0.56924
7988,2.3287
7989,3.4046
7990,3.2109
7991,0.56852
7992,0.53347
7993,3.2246
7994,2.421
7995,0.43575
7996,1.5289
7997,2.7086
7998,0.47389
7999,1.6495
8000,1.8363
8001,4.425
8002,6.1817
8003,5.5076
8004,6.2423
8005,3.6841
8006,3.8645
8007,4.6806
8008,3.907
8009,3.0347
8010,5.8547
8011,6.8922
8012,6.6475
8013,6.9535
8014,4.3427
8015,5.7721
8016,4.3951
8017,5.834
8018,4.9109
8019,3.5302
8020,4.962
8021,3.5811
8022,7.1792
8023,4.5669
8024,4.6204
8025,4.8005
8026,2.0906
8027,1.5265
8028,0.2561
8029,0.27968
8030,0.44973
8031,3.5799
8032,2.1909
8033,3.3182
8034,2.2005
8035,2.4268
8036,2.6367
8037,2.4432
8038,1.6436
8039,0.24824
8040,0.26861
8041,1.1648
8042,0.46912
8043,4.9748
8044,6.4988
8045,5.8687
8046,6.456
8047,4.1209
8048,3.0022
8049,0.20468
8050,1.9743
8051,3.1502
8052,0.17424
8053,2.1295
8054,5.0761
8055,4.3489
8056,3.3293
8057,3.5183
8058,2.9247
8059,3.888
8060,0.8782
8061,0.63573
8062,2.2418
8063,2.5262
8064,3.6946
8065,2.0452
8066,5.6997
8067,6.9329
8068,6.2919
8069,6.8899
8070,4.3233
8071,4.5511
8072,5.3664
8073,4.5113
8074,3.3958
8075,3.6237
8076,7.1972
8077,4.6303
8078,4.8618
8079,4.8581
8080,3.0984
8081,2.0217
8082,0.25374
8083,1.4568
8084,4.0506
8085,3.32
8086,0.12339
8087,2.2753
8088,3.3648
8089,0.23581
8090,2.6234
8091,2.9313
8092,2.3045
8093,0.68416
8094,5.2354
8095,6.563
8096,6.0759
8097,6.4668
8098,4.5474
8099,4.8545
8100,4.2272
8101,2.6092
8102,5.3346
8103,4.5493
8104,4.1149
8105,3.4879
8106,2.8951
8107,0.15629
8108,5.17E-02
8109,1.8104
8110,0.69961
8111,1.2473
8112,0.37984
8113,2.9845
8114,2.9774
8115,3.9717
8116,0.49192
8117,2.4154
8118,3.1212
8119,1.818
8120,2.8807
8121,2.554
8122,2.2321
8123,5.1044
8124,6.5538
8125,5.7076
8126,4.5384
8127,4.2169
8128,4.85
8129,4.0086
8130,3.6805
8131,3.3595
8132,6.3046
8133,7.0583
8134,5.1377
8135,4.8174
8136,3.202
8137,4.8146
8138,2.8924
8139,1.7906
8140,0.62486
8141,0.92522
8142,0.31259
8143,1.3395
8144,5.3844
8145,6.5715
8146,6.1102
8147,6.4688
8148,4.956
8149,3.5009
8150,0.37244
8151,2.3523
8152,3.387
8153,0.46476
8154,3.0679
8155,5.3113
8156,4.4848
8157,4.1636
8158,3.5495
8159,2.7052
8160,0.128
8161,1.5182
8162,2.5236
8163,2.3825
8164,2.6897
8165,2.5645
8166,4.611
8167,6.2099
8168,3.4214
8169,5.3169
8170,4.2885
8171,4.5951
8172,4.4708
8173,4.4721
8174,3.5854
8175,3.4421
8176,3.6273
8177,2.8846
8178,0.26368
8179,1.8023
8180,2.5386
8181,0.62017
8182,0.92502
8183,2.7767
8184,3.7531
8185,3.5335
8186,0.41107
8187,0.15967
8188,6.0705
8189,6.8633
8190,5.0424
8191,5.3483
8192,2.6496
8193,1.5946
8194,1.0378
8195,5.2091
8196,6.4027
8197,5.7183
8198,5.9737
8199,3.7713
8200,4.8856
8201,3.3306
8202,0.39726
8203,2.1789
8204,0.55798
8205,1.9133
8206,3.0111
8207,4.8801
8208,3.2112
8209,2.9472
8210,4.0569
8211,3.2807
8212,2.3958
8213,0.18867
8214,1.3159
8215,2.2833
8216,1.4637
8217,2.5639
8218,2.4351
8219,4.2912
8220,5.9681
8221,3.1901
8222,4.8957
8223,4.1791
8224,3.3427
8225,4.4547
8226,4.3317
8227,3.2926
8228,3.445
8229,5.6846
8230,6.3317
8231,4.1307
8232,5.2452
8233,2.4475
8234,0.30007
8235,1.6226
8236,0.17344
8237,1.0171
8238,3.4068
8239,2.5723
8240,3.4477
8241,1.0515
8242,0.1563
8243,3.2268
8244,2.355
8245,0.83419
8246,0.29281
8247,2.393
8248,1.3703
8249,9.47E-02
8250,1.1132
8251,2.901
8252,2.1952
8253,0.2625
8254,1.177
8255,1.9722
8256,1.3867
8257,1.3889
8258,3.8981
8259,5.2607
8260,4.3741
8261,2.8326
8262,3.6819
8263,3.026
8264,3.055
8265,3.3649
8266,2.9619
8267,3.7004
8268,5.658
8269,4.8396
8270,5.1534
8271,3.4075
8272,3.4404
8273,0.45303
8274,0.67782
8275,1.9403
8276,3.1262
8277,1.7954
8278,1.8016
8279,5.014
8280,5.4228
8281,3.6534
8282,3.6909
8283,3.9964
8284,2.2408
8285,2.3901
8286,2.7982
8287,2.5682
8288,2.2085
8289,0.89021
8290,0.86896
8291,1.0136
8292,1.5421
8293,0.28045
8294,0.21864
8295,0.30605
8296,1.3646
8297,0.27896
8298,0.18881
8299,2.0971
8300,1.7323
8301,1.8095
8302,1.6869
8303,1.6103
8304,0.41123
8305,1.2872
8306,1.3231
8307,0.58722
8308,0.59899
8309,0.42299
8310,0.46217
8311,0.57923
8312,1.1116
8313,1.4646
8314,0.22549
8315,1.0641
8316,3.44
8317,4.5233
8318,3.8331
8319,3.599
8320,3.1112
8321,1.9104
8322,0.26335
8323,0.95178
8324,1.3233
8325,1.6131
8326,2.8751
8327,1.7554
8328,2.3651
8329,2.4693
8330,2.4368
8331,2.9734
8332,1.5827
8333,2.0859
8334,1.6778
8335,4.6113
8336,3.4033
8337,3.7792
8338,2.8311
8339,3.1652
8340,4.2413
8341,4.0988
8342,3.1324
8343,3.4841
8344,0.29338
8345,1.0799
8346,0.36858
8347,0.50101
8348,0.41555
8349,0.77289
8350,0.71468
8351,0.54402
8352,0.30448
8353,0.30858
8354,0.18141
8355,0.37565
8356,1.1714
8357,1.1037
8358,0.98606
8359,0.90143
8360,0.46594
8361,0.76523
8362,0.61546
8363,0.80472
8364,0.3661
8365,0.65132
8366,3.31
8367,3.4263
8368,2.8333
8369,2.5289
8370,2.7892
8371,2.7662
8372,2.5199
8373,2.5808
8374,2.4273
8375,2.5629
8376,2.5992
8377,2.5391
8378,2.3116
8379,0.1759
8380,1.3734
8381,0.44429
8382,0.9488
8383,1.473
8384,1.4509
8385,1.2061
8386,0.7182
8387,0.90667
8388,0.44036
8389,0.83609
8390,0.37188
8391,0.36066
8392,0.64084
8393,1.8232
8394,1.0421
8395,1.2673
8396,0.87299
8397,1.4312
8398,1.7609
8399,1.4894
8400,1.6908
8401,1.0201
8402,0.65154
8403,1.8705
8404,1.5763
8405,2.0866
8406,2.0388
8407,1.7996
8408,2.8814
8409,1.7802
8410,1.941
8411,1.7594
8412,1.9348
8413,2.3046
8414,2.0062
8415,2.2549
8416,2.0841
8417,2.38
8418,2.6429
8419,2.612
8420,1.9407
8421,1.7922
8422,1.383
8423,1.2724
8424,2.2431
8425,2.0744
8426,2.1553
8427,1.8143
8428,1.8753
8429,1.4584
8430,1.4668
8431,1.215
8432,1.1587
8433,1.3181
8434,2.0605
8435,1.6563
8436,0.36882
8437,0.75289
8438,0.5985
8439,0.69194
8440,0.58602
8441,0.94214
8442,0.71206
8443,0.31506
8444,0.34248
8445,0.67843
8446,0.34493
8447,0.4664
8448,0.65645
8449,0.44122
8450,1.3751
8451,0.88595
8452,0.88471
8453,0.36513
8454,0.35464
8455,0.36635
8456,0.18632
8457,0.19052
8458,0.23244
8459,0.20409
8460,0.21482
8461,0.2462
8462,0.96403
8463,1.4696
8464,0.57625
8465,0.55682
8466,0.41983
8467,0.72396
8468,1.1846
8469,0.59196
8470,0.53215
8471,0.48196
8472,0.89114
8473,0.22981
8474,0.39874
8475,0.3839
8476,0.34339
8477,0.1776
8478,0.33269
8479,0.86052
8480,1.0759
8481,1.6292
8482,0.76381
8483,0.77507
8484,0.94845
8485,1.227
8486,0.90046
8487,1.4079
8488,1.2127
8489,1.4819
8490,0.97891
8491,1.1987
8492,0.97943
8493,1.0198
8494,1.0704
8495,1.7293
8496,1.5315
8497,1.143
8498,1.0871
8499,1.8305
8500,1.3848
8501,0.48506
8502,0.51032
8503,0.60484
8504,0.40802
8505,0.54294
8506,1.3207
8507,0.83283
8508,0.56275
8509,0.42841
8510,0.46679
8511,0.84487
8512,0.49994
8513,1.3325
8514,0.70062
8515,0.63441
8516,0.52523
8517,0.50594
8518,1.5732
8519,1.0849
8520,0.62518
8521,1.6459
8522,0.82632
8523,0.42232
8524,0.46678
8525,0.40875
8526,1.5158
8527,1.0199
8528,0.51783
8529,0.41826
8530,0.38902
8531,0.64289
8532,1.5225
8533,0.70771
8534,0.16734
8535,0.17304
8536,0.21816
8537,0.19692
8538,0.27832
8539,0.35053
8540,0.26261
8541,0.37473
8542,0.47264
8543,0.52489
8544,0.53411
8545,0.64806
8546,0.6243
8547,0.4504
8548,0.97706
8549,0.9904
8550,0.83313
8551,0.83183
8552,0.90114
8553,1.388
8554,0.62126
8555,0.56884
8556,0.61433
8557,0.59133
8558,0.55887
8559,0.65647
8560,0.53283
8561,0.58254
8562,0.43442
8563,0.4919
8564,0.64465
8565,0.60317
8566,0.73536
8567,0.37435
8568,0.54154
8569,0.38316
8570,0.74397
8571,1.0772
8572,1.255
8573,0.24017
8574,0.21951
8575,0.41535
8576,0.22516
8577,0.25798
8578,0.14333
8579,0.20916
8580,0.70248
8581,1.0615
8582,0.22199
8583,0.85704
8584,0.57746
8585,0.8114
8586,1.1204
8587,0.97282
8588,0.59774
8589,1.0495
8590,1.8018
8591,0.97931
8592,1.1866
8593,0.36883
8594,0.36462
8595,0.19199
8596,0.21543
8597,0.93198
8598,0.28518
8599,0.45064
8600,0.31627
8601,0.22473
8602,0.89923
8603,0.49634
8604,0.48745
8605,0.25092
8606,1.1565
8607,0.76038
8608,0.60855
8609,0.77739
8610,1.1653
8611,0.6777
8612,1.0021
8613,1.0224
8614,0.15721
8615,0.18796
8616,0.22352
8617,0.29558
8618,0.53472
8619,0.62185
8620,0.63668
8621,0.657
8622,0.68522
8623,0.6042
8624,0.73756
8625,0.66366
8626,4.0137
8627,0.65659
8628,0.71518
8629,0.53759
8630,1.2011
8631,0.86391
8632,0.64622
8633,0.51965
8634,1.3925
8635,0.29109
8636,0.50335
8637,0.34788
8638,0.55539
8639,0.25316
8640,0.35405
8641,0.83944
8642,0.47089
8643,0.48858
8644,1.1845
8645,1.6141
8646,0.83704
8647,1.3461
8648,0.77867
8649,0.49846
8650,0.45949
8651,0.88932
8652,0.80829
8653,1.0892
8654,0.2795
8655,0.24327
8656,0.35887
8657,0.27734
8658,0.44702
8659,0.37347
8660,0.24215
8661,0.25489
8662,0.30573
8663,0.14931
8664,0.45043
8665,0.31823
8666,0.75499
8667,0.69183
8668,0.1573
8669,0.42668
8670,0.20812
8671,0.14672
8672,0.20659
8673,0.31714
8674,0.95446
8675,0.36944
8676,0.41983
8677,0.3856
8678,0.22888
8679,0.67882
8680,0.40166
8681,0.10916
8682,0.18938
8683,0.10494
8684,0.11985
8685,0.30479
8686,0.40846
8687,0.25214
8688,0.24013
8689,0.77614
8690,0.29831
8691,0.34844
8692,0.68135
8693,0.22055
8694,0.2859
8695,0.17071
8696,0.18724
8697,0.32376
8698,0.31612
8699,0.21996
8700,0.32823
8701,0.56099
8702,0.59655
8703,0.41531
8704,0.84922
8705,0.86128
8706,0.72677
8707,1.1213
8708,1.3444
8709,0.73463
8710,0.50649
8711,0.32622
8712,0.68184
8713,4.6199
8714,3.8937
8715,5.0566
8716,4.1842
8717,4.8408
8718,3.7754
8719,4.9479
8720,4.2877
8721,3.9117
8722,4.1838
8723,4.6254
8724,5.3408
8725,1.0642
8726,1.1708
8727,1.571
8728,1.0473
8729,1.0502
8730,0.93988
8731,0.57235
8732,0.40199
8733,0.32589
8734,0.87253
8735,2.6111
8736,0.65369
8737,3.3246
8738,1.3755
8739,1.7792
8740,1.2549
8741,1.1888
8742,1.5627
8743,1.96
8744,1.8375
8745,0.73963
8746,1.2139
8747,1.4041
8748,0.57921
8749,1.5513
8750,0.67524
8751,0.75466
8752,1.4522
8753,0.97112
8754,0.96654
8755,1.3998
8756,0.30885
8757,1.339
8758,1.2198
8759,1.1018
8760,1.0305
8761,1.947
8762,0.39384
8763,3.7668
8764,2.4775
8765,1.7214
8766,2.8263
8767,2.7581
8768,2.1615
8769,2.6486
8770,2.8099
8771,2.3737
8772,2.4505
8773,0.1996
8774,9.99E-02
8775,0.12224
8776,0.14401
8777,0.20269
8778,7.55E-02
8779,0.11283
8780,0.19052
8781,0.5325
8782,0.65834
8783,0.72417
8784,0.96074
8785,1.1053
8786,2.0657
8787,2.848
8788,1.2673
8789,1.9442
8790,2.5642
8791,1.1632
8792,1.6239
8793,1.5087
8794,1.1449
8795,0.99964
8796,0.87749
8797,1.7873
8798,1.1624
8799,0.99092
8800,0.85213
8801,0.60986
8802,3.6221
8803,3.2852
8804,2.8532
8805,2.9456
8806,1.811
8807,2.4877
8808,1.1903
8809,0.70331
8810,1.5832
8811,1.493
8812,2.2112
8813,2.8062
8814,1.3452
8815,2.3008
8816,1.0672
8817,8.86E-02
8818,8.70E-02
8819,0.14191
8820,7.45E-02
8821,0.10931
8822,0.1666
8823,0.15433
8824,0.24736
8825,0.16754
8826,0.15401
8827,0.1977
8828,0.81683
8829,2.48E-02
8830,2.65E-02
8831,3.42E-02
8832,3.65E-02
8833,4.09E-02
8834,3.75E-02
8835,1.29E-02
8836,3.43E-02
8837,0.18449
8838,2.42E-02
8839,1.56E-02
8840,3.18E-02
8841,3.82E-02
8842,1.60E-02
8843,2.36E-02
8844,1.52E-02
8845,5.30E-02
8846,2.90E-02
8847,2.54E-02
8848,5.27E-02
8849,4.35E-02
8850,6.08E-02
8851,3.47E-02
8852,0.16914
8853,0.15129
8854,0.15603
8855,0.28147
8856,0.17757
8857,0.15338
8858,0.20188
8859,0.23086
8860,0.17808
8861,0.17606
8862,0.1829
8863,0.29604
8864,0.20981
8865,0.19929
8866,0.18931
8867,0.21945
8868,0.21141
8869,0.30771
8870,0.23041
8871,0.32685
8872,0.31393
8873,0.35953
8874,0.3024
8875,0.24061
8876,0.32197
8877,0.32721
8878,0.35563
8879,9.40E-02
8880,0.15104
8881,0.17873
8882,0.15937
8883,0.19269
8884,0.21469
8885,0.26163
8886,0.21084
8887,0.1716
8888,0.1904
8889,0.22773
8890,0.22225
8891,0.17326
8892,0.16921
8893,0.19191
8894,0.21487
8895,0.18662
8896,0.19406
8897,0.23167
8898,0.19291
8899,0.20705
8900,0.22915
8901,0.23426
8902,7.65E-02
8903,0.10059
8904,3.95E-02
8905,6.90E-02
8906,3.76E-02
8907,0.12568
8908,0.16705
8909,0.25442
8910,0.26313
8911,6.53E-02
8912,7.20E-02
8913,3.61E-02
8914,0.1097
8915,0.10973
8916,9.30E-02
8917,0.11472
8918,0.15075
8919,0.13926
8920,0.1174
8921,0.1469
8922,0.23646
8923,0.25454
8924,0.23522
8925,0.27712
8926,0.26517
8927,0.32225
8928,0.34011
8929,0.36277
8930,0.52107
8931,0.32699
8932,0.4247
8933,0.40406
8934,0.38124
8935,0.53957
8936,0.4263
8937,0.44303
8938,0.50812
8939,0.34794
8940,0.35247
8941,0.30869
8942,0.34847
8943,0.3453
8944,0.13785
8945,0.11037
8946,0.41872
8947,0.38549
8948,0.33448
8949,0.47957
8950,0.34017
8951,0.14127
8952,0.39615
8953,0.12468
8954,0.28935
8955,1.0752
8956,0.80345
8957,0.28857
8958,0.2095
8959,1.2093
8960,0.47212
8961,0.25412
8962,7.65E-02
8963,0.34498
8964,0.17068
8965,9.10E-02
8966,5.83E-02
8967,0.55057
8968,1.7966
8969,1.7943
8970,1.7019
8971,1.0443
8972,1.1723
8973,1.3073
8974,1.8343
8975,1.7635
8976,1.177
8977,1.8404
8978,1.742
8979,1.0841
8980,1.2328
8981,1.8397
8982,1.7004
8983,1.3307
8984,1.7763
8985,1.7648
8986,0.71849
8987,1.2335
8988,1.7991
8989,1.4692
8990,0.75176
8991,1.7768
8992,1.7753
8993,0.74342
8994,0.97991
8995,1.7646
8996,1.2835
8997,0.96703
8998,1.6531
8999,1.7343
9000,0.96653
9001,0.93178
9002,1.6241
9003,0.90695
9004,0.82101
9005,1.4469
9006,1.6383
9007,0.90686
9008,0.9076
9009,1.379
9010,0.39589
9011,0.6535
9012,1.1159
9013,1.4918
9014,0.4555
9015,0.84082
9016,0.64031
9017,1.0396
9018,0.17014
9019,0.75741
9020,1.3068
9021,0.38377
9022,0.5057
9023,0.65147
9024,0.20978
9025,0.39277
9026,0.26601
9027,0.1119
9028,0.39622
9029,0.80146
9030,0.31429
9031,0.41433
9032,0.25355
9033,0.56745
9034,0.21114
9035,0.43325
9036,0.37948
9037,0.52371
9038,0.93113
9039,0.60321
9040,0.58059
9041,0.52077
9042,0.70673
9043,0.62479
9044,0.73703
9045,0.64754
9046,0.68303
9047,0.65045
9048,0.77555
9049,0.79833
9050,0.63114
9051,0.75414
9052,0.66554
9053,0.67763
9054,0.68439
9055,0.78853
9056,1.0398
9057,1.2429
9058,0.65681
9059,0.66284
9060,0.75441
9061,0.99264
9062,0.67471
9063,0.6958
9064,0.99535
9065,0.70814
9066,0.71177
9067,0.75368
9068,0.98962
9069,0.67872
9070,0.6085
9071,0.58629
9072,0.75038
9073,0.57905
9074,0.31211
9075,0.74037
9076,0.57289
9077,0.65442
9078,0.75296
9079,0.9814
9080,0.73205
9081,0.69049
9082,0.6614
9083,0.69921
9084,0.42625
9085,0.52038
9086,0.37798
9087,0.31457
9088,0.58925
9089,0.44531
9090,0.27797
9091,0.39702
9092,0.40615
9093,0.45567
9094,0.54099
9095,0.67013
9096,0.62898
9097,0.4308
9098,0.25338
9099,0.57972
9100,0.52962
9101,0.63667
9102,0.64954
9103,0.60713
9104,3.9211
9105,2.1165
9106,2.2978
9107,2.0981
9108,2.8846
9109,3.4857
9110,2.4809
9111,2.1731
9112,2.0182
9113,3.1195
9114,2.1808
9115,0.50554
9116,0.43192
9117,2.0663
9118,2.0026
9119,1.2418
9120,2.0125
9121,0.99544
9122,1.909
9123,0.8514
9124,0.53767
9125,2.2317
9126,1.5965
9127,1.3321
9128,1.3231
9129,2.2169
9130,1.8357
9131,2.9206
9132,3.4423
9133,2.9269
9134,3.6109
9135,2.9105
9136,3.1409
9137,0.30804
9138,0.33465
9139,0.23594
9140,0.14333
9141,0.52975
9142,0.63419
9143,0.47348
9144,0.64388
9145,0.53096
9146,0.87027
9147,0.47028
9148,0.60548
9149,0.49242
9150,1.5422
9151,0.47177
9152,0.33765
9153,0.43261
9154,0.12047
9155,0.1384
9156,6.84E-02
9157,1.6746
9158,2.5643
9159,0.75496
9160,1.0609
9161,1.2716
9162,0.93327
9163,0.69816
9164,0.29752
9165,1.1985
9166,0.37444
9167,0.79928
9168,0.25085
9169,0.22421
9170,0.49264
9171,1.0926
9172,0.93031
9173,1.1301
9174,5.32E-02
9175,3.33E-02
9176,3.07E-02
9177,2.3994
9178,2.1912
9179,2.9464
9180,1.805
9181,0.35979
9182,0.74177
9183,1.2001
9184,0.57561
9185,0.72455
9186,0.56339
9187,0.73462
9188,0.54041
9189,0.9613
9190,1.1072
9191,0.5688
9192,0.56085
9193,0.31257
9194,0.69112
9195,0.35403
9196,0.2603
9197,0.29417
9198,0.38515
9199,0.30156
9200,0.31131
9201,0.47573
9202,0.39181
9203,0.45782
9204,0.75562
9205,0.55997
9206,0.37372
9207,0.45327
9208,0.27602
9209,0.33785
9210,1.1922
9211,0.36884
9212,0.66748
9213,0.5838
9214,0.60754
9215,1.3119
9216,0.35824
9217,1.0257
9218,0.54865
9219,0.25161
9220,2.4387
9221,1.6502
9222,1.8209
9223,2.4103
9224,2.8913
9225,2.4683
9226,2.1217
9227,1.6352
9228,1.53
9229,1.8157
9230,0.69974
9231,2.6186
9232,2.5567
9233,2.3278
9234,2.3794
9235,1.5165
9236,1.2793
9237,2.0333
9238,3.2563
9239,1.1597
9240,0.84951
9241,0.80756
9242,1.8149
9243,1.3571
9244,0.9325
9245,0.5649
9246,0.59229
9247,0.83568
9248,1.6239
9249,1.7741
9250,0.99453
9251,0.96847
9252,0.99812
9253,1.2248
9254,2.9631
9255,1.051
9256,3.429
9257,1.1887
9258,2.7985
9259,3.447
9260,1.1868
9261,1.5772
9262,1.0585
9263,2.3135
9264,1.9419
9265,6.52E-02
9266,0.15221
9267,0.20421
9268,7.71E-02
9269,9.41E-02
9270,0.21964
9271,2.2271
9272,1.7051
9273,2.7446
9274,2.6123
9275,3.9689
9276,0.37293
9277,1.3463
9278,0.45616
9279,0.39082
9280,0.75791
9281,0.31055
9282,0.70216
9283,0.48626
9284,0.41385
9285,0.56901
9286,2.0788
9287,2.2508
9288,0.65141
9289,2.2491
9290,0.57044
9291,0.28853
9292,0.65641
9293,0.7533
9294,0.39661
9295,0.40079
9296,0.38831
9297,0.13149
9298,0.165
9299,0.61142
9300,0.1033
9301,9.95E-02
9302,0.2379
9303,0.33784
9304,0.15464
9305,0.67536
9306,0.44614
9307,0.16913
9308,0.22268
9309,0.11399
9310,0.18304
9311,0.16504
9312,0.1941
9313,0.95189
9314,1.2441
9315,1.1835
9316,2.2157
9317,1.7602
9318,0.80604
9319,0.27194
9320,0.32824
9321,0.49739
9322,0.4836
9323,0.39556
9324,0.29705
9325,0.63753
9326,0.23763
9327,0.19126
9328,0.16801
9329,0.1759
9330,2.4819
9331,0.54674
9332,1.104
9333,2.1106
9334,2.3731
9335,1.9317
9336,1.0889
9337,2.1056
9338,1.4629
9339,1.4996
9340,1.5794
9341,0.95446
9342,0.2088
9343,0.42199
9344,0.14942
9345,0.52814
9346,0.85138
9347,0.32112
9348,0.67112
9349,1.9462
9350,1.392
9351,1.0986
9352,1.0388
9353,0.2332
9354,0.17358
9355,0.85725
9356,2.0773
9357,0.55905
9358,0.57989
9359,0.36521
9360,0.1843
9361,1.118
9362,0.10463
9363,1.066
9364,1.0532
9365,1.0865
9366,0.82915
9367,1.3972
9368,0.81696
9369,1.3002
9370,1.0024
9371,0.97539
9372,0.10404
9373,0.28411
9374,0.1163
9375,6.94E-02
9376,0.94495
9377,1.7778
9378,1.1437
9379,1.0975
9380,1.2549
9381,1.311
9382,1.3042
9383,1.3636
9384,1.7106
9385,1.4249
9386,2.2017
9387,2.9723
9388,1.1944
9389,0.32122
9390,0.45937
9391,0.72844
9392,0.53416
9393,0.99481
9394,1.0952
9395,0.79815
9396,0.77069
9397,2.6288
9398,5.33E-02
9399,7.78E-02
9400,0.31066
9401,1.3451
9402,0.90954
9403,0.16706
9404,1.0303
9405,1.3304
9406,0.90135
9407,1.1869
9408,1.6562
9409,1.4153
9410,1.5619
9411,1.459
9412,1.5552
9413,0.82749
9414,0.86472
9415,0.52103
9416,0.61138
9417,0.53247
9418,0.76488
9419,0.87873
9420,0.88849
9421,0.52116
9422,0.55212
9423,0.18981
9424,0.20513
9425,0.25565
9426,0.29651
9427,0.37322
9428,0.26354
9429,2.397
9430,1.9482
9431,2.1807
9432,1.9399
9433,1.4412
9434,2.0359
9435,0.75141
9436,0.76974
9437,1.7142
9438,0.86537
9439,3.4988
9440,0.17519
9441,0.22589
9442,0.39425
9443,0.42317
9444,0.2296
9445,0.34688
9446,0.5418
9447,0.32034
9448,0.15476
9449,0.46869
9450,0.13335
9451,0.9973
9452,0.74151
9453,1.0126
9454,0.72767
9455,1.0272
9456,0.83154
9457,1.006
9458,0.10828
9459,0.4277
9460,0.13241
9461,0.26009
9462,0.25596
9463,8.69E-02
9464,0.24362
9465,0.72105
9466,0.20079
9467,0.69114
9468,0.49027
9469,0.29164
9470,1.5733
9471,1.3992
9472,1.4895
9473,1.4888
9474,1.7524
9475,1.4018
9476,1.7726
9477,1.6202
9478,1.4767
9479,1.3937
9480,0.63529
9481,0.77409
9482,0.19247
9483,1.6439
9484,0.50547
9485,2.2141
9486,2.1215
9487,1.2114
9488,0.52178
9489,0.49282
9490,0.10535
9491,0.13598
9492,0.14471
9493,0.15207
9494,0.2896
9495,8.57E-02
9496,0.12386
9497,0.81191
9498,0.58816
9499,0.71818
9500,0.5097
9501,0.52505
9502,0.25656
9503,0.17072
9504,0.18508
9505,0.26618
9506,0.10906
9507,2.1509
9508,0.77997
9509,0.95807
9510,1.3515
9511,0.2852
9512,0.26886
9513,0.14818
9514,0.28014
9515,0.21863
9516,0.55264
9517,0.39222
9518,0.56246
9519,0.44914
9520,0.36911
9521,0.54044
9522,0.71146
9523,0.5976
9524,0.93805
9525,1.0835
9526,0.54552
9527,0.27421
9528,0.43509
9529,0.3542
9530,0.71348
9531,0.33478
9532,0.3801
9533,0.32228
9534,0.24341
9535,0.26154
9536,0.12587
9537,0.16757
9538,0.24928
9539,0.50854
9540,0.42356
9541,0.43701
9542,0.35723
9543,0.38614
9544,0.60737
9545,0.52698
9546,0.94825
9547,0.41638
9548,0.38222
9549,0.41719
9550,0.37871
9551,0.74282
9552,0.49201
9553,0.34776
9554,0.37502
9555,0.71269
9556,0.30495
9557,0.73179
9558,0.36399
9559,0.39964
9560,0.35399
9561,0.29707
9562,0.27978
9563,0.7725
9564,0.56459
9565,0.64266
9566,0.2751
9567,0.7454
9568,1.629
9569,0.81817
9570,0.82567
9571,0.31498
9572,0.26996
9573,0.39611
9574,0.2868
9575,0.3104
9576,0.73093
9577,0.44284
9578,0.3878
9579,0.94615
9580,1.461
9581,1.5524
9582,1.2304
9583,0.11742
9584,1.0741
9585,0.78383
9586,0.70112
9587,0.95703
9588,0.70818
9589,0.69145
9590,1.0576
9591,0.64105
9592,0.9868
9593,0.82229
9594,0.64066
9595,0.96684
9596,2.5004
9597,2.1396
9598,0.22143
9599,2.3054
9600,1.9355
9601,2.2643
9602,1.8245
9603,0.43542
9604,0.40719
9605,0.30896
9606,0.89817
9607,0.80097
9608,0.95802
9609,0.74525
9610,0.67778
9611,1.0692
9612,0.87734
9613,1.3216
9614,0.92621
9615,0.68849
9616,0.44694
9617,0.22718
9618,0.30955
9619,1.1343
9620,0.87011
9621,2.4783
9622,1.7497
9623,1.3548
9624,1.0336
9625,1.1579
9626,1.1309
9627,0.34674
9628,9.67E-02
9629,1.8865
9630,1.3773
9631,0.94547
9632,0.4074
9633,2.5946
9634,1.1355
9635,0.34632
9636,2.1165
9637,0.95461
9638,1.3806
9639,0.22917
9640,0.35142
9641,0.833
9642,0.86777
9643,3.7702
3406,5.9585
3407,21.894
3408,1.9828
3409,3.0063
3410,14.408
3411,12.621
3412,20.23
3413,12.956
3414,3.3487
3415,5.4726
3416,9.4197
3417,10.771
3418,1.2716
3419,2.3308
3420,2.1
3421,2.9433
3422,4.7313
3423,7.5344
3424,5.6952
3425,3.0796
3426,2.6558
3427,2.0152
3428,6.6223
3429,10.917
3430,8.0806
3431,4.4319
3432,2.0507
3433,3.0074
3434,19.744
3435,25.353
3436,9.251
3437,2.7683
3438,0.74353
3439,9.6054
3440,6.488
3441,2.5329
3442,10.961
3443,6.1173
3444,14.784
3445,3.9216
3446,9.3573
3447,12.449
3448,5.0237
3449,5.8194
3450,9.7439
3451,8.7115
3452,3.0383
3453,1.8681
3454,0.84034
3455,3.6979
3456,6.3383
3457,15.476
3458,5.7154
3459,5.5164
3460,1.6199
3461,5.4581
3462,24.127
3463,16.344
3464,9.265
3465,6.7347
3466,1.2529
3467,4.1365
3468,6.218
3469,9.8793
3470,4.718
3471,3.2523
3472,4.2347
3473,7.9886
3474,9.4508
3475,7.322
3476,3.1883
3477,4.1801
3478,21.753
3479,4.5411
3480,11.023
3481,9.0472
3482,14.16
3483,9.1429
3484,5.0947
3485,11.904
3486,26.76
3487,10.896
3488,11.076
3489,9.6036
3490,8.4823
3491,16.844
3492,12.299
3493,16.869
3494,9.1046
3495,11.442
3496,11.665
3497,9.1587
3498,11.14
3499,19.239
3500,16.819
3501,15.857
3502,14.833
3503,18.599
3504,5.7193
3505,11.786
3506,6.2101
3507,13.746
3508,6.4328
3509,2.2031
3510,9.9941
3511,5.9106
3512,6.1532
3513,17.154
3514,9.1839
3515,5.4571
3516,10.659
3517,5.5606
3518,6.5074
3519,6.7044
3520,5.144
3521,13.746
3522,14.28
3523,2.8701
3524,2.1592
3525,9.9396
3526,9.4958
3527,27.036
3528,21.295
3529,3.5129
3530,5.7564
3531,7.0538
3532,8.4209
3533,9.2318
3534,14.879
3535,5.167
3536,2.0476
3537,2.3213
3538,7.2794
3539,42.724
3540,17.337
3541,23.752
3542,10.802
3543,4.9629
3544,6.4049
3545,10.17
3546,10.874
3547,2.9698
3548,2.2455
3549,2.0476
3550,4.7766
3551,9.1341
3552,13.551
3553,8.9725
3554,6.4722
3555,12.787
3556,7.8974
3557,7.6134
3558,3.3677
3559,5.1804
3560,5.4257
3561,23.81
3562,13.804
3563,4.9781
3564,1.9553
3565,10.629
3566,25.476
3567,34.6
3568,11.804
3569,12.974
3570,7.178
3571,7.9823
3572,18.443
3573,7.7952
3574,18.116
3575,13.789
3576,10.343
3577,4.518
3578,9.2298
3579,13.132
3580,1.8672
3581,2.1557
3582,3.3396
3583,26.584
3584,16.813
3585,25.465
3586,14.416
3587,4.4127
3588,3.1854
3589,5.894
3590,6.4029
3591,7.3628
3592,18.189
3593,12.296
3594,6.082
3595,3.9877
3596,6.442
3597,4.3844
3598,15.824
3599,11.361
3600,13.66
3601,4.7638
3602,15.044
3603,6.145
3604,7.3067
3605,7.7775
3606,10.594
3607,17.852
3608,12.7
3609,14.215
3610,14.241
3611,5.7783
3612,5.495
3613,9.587
3614,18.65
3615,16.156
3616,8.0645
3617,13.276
3618,16.485
3619,18.119
3620,4.3955
3621,3.801
3622,4.055
3623,3.6899
3624,19.629
3625,17.953
3626,32.13
3627,19.163
3628,18.512
3629,16.01
3630,12.486
3631,1.7537
3632,2.4222
3633,2.0018
3634,1.6603
3635,1.9576
3636,6.0187
3637,2.0796
3638,2.2395
3639,5.0461
3640,2.9542
3641,19.764
3642,10.838
3643,10.709
3644,28.342
3645,20.077
3646,7.9479
3647,10.609
3648,11.61
3649,11.233
3650,10.41
3651,8.3784
3652,12.264
3653,23.005
3654,18.355
3655,21.696
3656,21.306
3657,14.577
3658,8.8828
3659,17.052
3660,17.837
3661,11.315
3662,13.33
3663,11.59
3664,4.1595
3665,3.5706
3666,1.6963
3667,3.2378
3668,3.9692
3669,4.3957
3670,5.2063
3671,5.9279
3672,4.1785
3673,6.9238
3674,7.3827
3675,7.9088
3676,9.6514
3677,7.3969
3678,8.4579
3679,8.7444
3680,10.378
3681,10.555
3682,8.3259
3683,1.5626
3684,2.0239
3685,0.46735
3686,1.4204
3687,2.5753
3688,0.94662
3689,1.2457
3690,0.95844
3691,2.4327
3692,3.2237
3693,2.6352
3694,2.9238
3695,2.3031
3696,3.1756
3697,0.978
3698,1.4943
3699,1.6557
3700,3.0453
3701,3.3715
3702,1.6561
3703,1.9418
3704,4.1419
3705,5.9975
3706,2.6112
3707,2.9791
3708,3.8989
3709,5.6542
3710,7.3283
3711,4.8558
3712,4.5016
3713,6.5875
3714,3.9868
3715,6.0451
3716,8.261
3717,8.3815
3718,5.6653
3719,5.8733
3720,4.3548
3721,3.7041
3722,2.9338
3723,2.2209
3724,4.6455
3725,5.5304
3726,7.4767
3727,3.5799
3728,4.967
3729,1.0317
3730,2.9313
3731,3.6809
3732,4.4945
3733,2.6536
3734,2.2009
3735,2.5468
3736,0.84539
3737,3.733
3738,2.3779
3739,0.55773
3740,1.9594
3741,1.3586
3742,6.9456
3743,3.0986
3744,8.6641
3745,2.2363
3746,3.0132
3747,9.3067
3748,9.2667
3749,2.7194
3750,3.6557
3751,10.204
3752,11.415
3753,5.3938
3754,1.9987
3755,2.4519
3756,9.8307
3757,1.502
3758,2.164
3759,8.3647
3760,4.5707
3761,1.6075
3762,1.1339
3763,1.7129
3764,2.3723
3765,9.5232
3766,1.0861
3767,1.5421
3768,3.5838
3769,20.469
3770,10.816
3771,15.037
3772,16.39
3773,29.146
3774,20.304
3775,11.442
3776,16.853
3777,9.6905
3778,10.56
3779,16.198
3780,15.902
3781,33.921
3782,14.215
3783,25.668
3784,5.2046
3785,6.2577
3786,5.6872
3787,4.7174
3788,4.9952
3789,8.0987
3790,4.1969
3791,6.0896
3792,1.5533
3793,5.426
3794,3.983
3795,1.9624
3796,1.5999
3797,1.6928
3798,1.5596
3799,1.0452
3800,2.7431
3801,3.3312
3802,1.2978
3803,0.91729
3804,1.2353
3805,0.78574
3806,7.5077
3807,4.5475
3808,5.5948
3809,7.0299
3810,6.9314
3811,9.1
3812,3.5463
3813,2.2585
3814,3.6213
3815,5.5178
3816,5.7061
3817,10.248
3818,11.769
3819,7.7084
3820,10.024
3821,11.644
3822,14.731
3823,13.102
3824,6.4453
3825,6.8659
3826,5.5733
3827,6.2918
3828,14.102
3829,11.812
3830,15.043
3831,4.9783
3832,3.7389
3833,5.081
3834,5.6717
3835,4.4618
3836,8.4957
3837,7.822
3838,10.823
3839,12.537
3840,13.618
3841,12.615
3842,12.99
3843,12.505
3844,10.076
3845,11.579
3846,10.012
3847,15
3848,4.8855
3849,6.2412
3850,4.1481
3851,5.4043
3852,6.7771
3853,3.2688
3854,4.3955
3855,3.7009
3856,5.1313
3857,4.6553
3858,6.2882
3859,9.7245
3860,8.28
3861,6.5256
3862,6.772
3863,8.1479
3864,4.0915
3865,3.7417
3866,8.2518
3867,9.9714
3868,6.7267
3869,10.715
3870,2.7273
3871,3.6082
3872,2.4581
3873,3.7566
3874,2.2138
3875,1.8311
3876,2.8833
3877,2.2039
3878,1.8959
3879,4.2077
3880,3.4044
3881,5.7479
3882,1.2753
3883,1.5081
3884,1.4581
3885,10.757
3886,7.3676
3887,2.4068
3888,5.3264
3889,3.0835
3890,3.1395
3891,3.9508
3892,9.8438
3893,7.3906
3894,11.893
3895,4.4268
3896,9.0308
3897,5.674
3898,5.6683
3899,3.5038
3900,7.7061
3901,5.7708
3902,4.9191
3903,4.1286
3904,6.9768
3905,2.8557
3906,1.6209
3907,6.3436
3908,2.7835
3909,5.5326
3910,3.1601
3911,3.0905
3912,2.8348
3913,3.0136
3914,3.4248
3915,2.2773
3916,11.871
3917,3.9974
3918,12.263
3919,2.6714
3920,15.094
3921,19.971
3922,14.45
3923,10.594
3924,10.053
3925,11.201
3926,11.74
3927,9.3231
3928,13.193
3929,10.434
3930,7.5658
3931,12.083
3932,6.649
3933,6.647
3934,6.3718
3935,4.5367
3936,5.2536
3937,4.8991
3938,4.6543
3939,4.4867
3940,3.7756
3941,2.6352
3942,2.4468
3943,4.7027
3944,3.8935
3945,6.8414
3946,5.7627
3947,1.8717
3948,7.6398
3949,7.3268
3950,5.014
3951,7.1561
3952,12.14
3953,6.2431
3954,5.1541
3955,5.4138
3956,3.7819
3957,10.865
3958,6.0022
3959,10.678
3960,6.6039
3961,2.2892
3962,5.3513
3963,7.2716
3964,1.4118
3965,8.1065
3966,8.5952
3967,6.08
3968,2.984
3969,1.7589
3970,3.2835
3971,8.0883
3972,6.0175
3973,5.7491
3974,1.5976
3975,2.1226
3976,2.3275
3977,5.218
3978,7.0103
3979,4.7825
3980,1.851
3981,2.4132
3982,1.576
3983,5.5448
3984,1.1575
3985,1.0584
3986,4.0405
3987,3.6056
3988,3.9093
3989,4.5309
3990,8.4766
3991,3.1347
3992,1.8313
3993,6.4233
3994,2.6006
3995,2.6305
3996,6.0289
3997,10.213
3998,8.5314
3999,11.243
4000,12.15
4001,18.715
4002,13.207
4003,14.425
4004,11.904
4005,13.712
4006,12.274
4007,11.292
4008,16.408
4009,10.207
4010,14.873
4011,5.9597
4012,3.5952
4013,3.5148
4014,5.8733
4015,4.7446
4016,3.1119
4017,4.469
4018,5.1791
4019,4.5412
4020,6.9275
4021,4.3428
4022,0.90619
4023,4.3975
4024,3.5174
4025,3.703
4026,1.6635
4027,2.3225
4028,5.4563
4029,3.3871
4030,9.4299
4031,7.0118
4032,10.119
4033,3.3458
4034,4.6644
4035,2.6901
4036,6.892
4037,11.446
4038,6.0247
4039,4.211
4040,9.8971
4041,7.4269
4042,12.61
4043,5.3934
4044,4.5728
4045,9.6638
4046,5.5711
4047,7.7547
4048,8.077
4049,3.5668
4050,3.8708
4051,7.3481
4052,9.5038
4053,4.1205
4054,2.9873
4055,11.801
4056,3.2253
4057,7.538
4058,7.2216
4059,7.7462
4060,16.609
4061,10.249
4062,7.4967
4063,11.528
4064,13.431
4065,13.197
4066,8.6622
4067,11.815
4068,10.187
4069,7.3554
4070,11.556
4071,6.5947
4072,6.5324
4073,5.3739
4074,4.3032
4075,6.6861
4076,11.672
4077,6.3047
4078,5.1398
4079,5.6739
4080,6.1643
4081,14.369
4082,9.2536
4083,5.7084
4084,6.3814
4085,2.5485
4086,7.6235
4087,7.0904
4088,2.7921
4089,4.1523
4090,4.0396
4091,8.1802
4092,3.5811
4093,4.0508
4094,3.7513
4095,6.8357
4096,4.1434
4097,3.6542
4098,5.5141
4099,3.491
4100,14.307
4101,10.678
4102,17.808
4103,12.54
4104,5.7363
4105,20.9
4106,25.239
4107,19.78
4108,14.824
4109,11.6
4110,10.355
4111,13.294
4112,6.7069
4113,6.0497
4114,9.2738
4115,9.9795
4116,13.125
4117,11.721
4118,10.639
4119,9.4029
4120,9.0161
4121,11.87
4122,5.1827
4123,7.3122
4124,6.5037
4125,9.9874
4126,6.8075
4127,7.4045
4128,8.4796
4129,12.662
4130,9.4417
4131,5.8981
4132,5.0455
4133,5.8631
4134,7.7991
4135,6.0954
4136,7.2149
4137,13.953
4138,12.486
4139,17.933
4140,12.979
4141,11.834
4142,17.501
4143,15.415
4144,16.513
4145,10.243
4146,10.557
4147,17.781
4148,11.281
4149,11.16
4150,10.651
4151,4.4121
4152,5.6906
4153,8.0859
4154,13.239
4155,12.572
4156,14.117
4157,14.745
4158,6.5151
4159,9.1403
4160,11.892
4161,12.894
4162,16.915
4163,2.2905
4164,2.8583
4165,8.6036
4166,13.373
4167,18.555
4168,4.7084
4169,2.9657
4170,14.918
4171,12.104
4172,14.834
4173,13.353
4174,16.517
4175,10.264
4176,7.9762
4177,7.6144
4178,10.352
4179,15.428
4180,5.8625
4181,8.7343
4182,7.2159
4183,18.449
4184,6.1408
4185,10.363
4186,8.5568
4187,4.1512
4188,12.849
4189,13.241
4190,15.832
4191,18.566
4192,9.6134
4193,19.24
4194,9.1244
4195,20.288
4196,19.848
4197,8.5017
4198,12.395
4199,23.657
4200,6.9703
4201,14.56
4202,9.1387
4203,10.749
4204,12.228
4205,19.92
4206,15.778
4207,18.499
4208,12.281
4209,10.157
4210,5.9407
4211,5.6631
4212,6.2305
4213,4.5082
4214,7.4808
4215,8.6749
4216,8.6504
4217,8.3984
4218,7.0393
4219,6.0371
4220,9.542
4221,5.7924
4222,4.7837
4223,5.7717
4224,7.5353
4225,5.7004
4226,16.048
4227,9.9158
4228,8.8441
4229,5.6194
4230,10.021
4231,6.2044
4232,4.8632
4233,5.1169
4234,5.3872
4235,7.2147
4236,9.7613
4237,2.4162
4238,9.0262
4239,1.5756
4240,3.6584
4241,4.4844
4242,6.2864
4243,2.7623
4244,3.4149
4245,12.508
4246,3.7578
4247,9.6336
4248,6.2483
4249,8.7074
4250,5.2438
4251,5.9264
4252,3.7987
4253,5.6019
4254,6.2668
4255,4.759
4256,5.2033
4257,10.334
4258,5.6045
4259,4.4438
4260,5.8402
4261,5.1835
4262,9.6702
4263,10.407
4264,9.3322
4265,10.518
4266,6.6223
4267,12.969
4268,6.0837
4269,5.3374
4270,6.5633
4271,3.034
4272,8.7088
4273,7.1164
4274,7.4572
4275,6.7921
4276,8.8549
4277,10.578
4278,6.2302
4279,5.2939
4280,8.0009
4281,8.7456
4282,7.6234
4283,3.0637
4284,7.1329
4285,6.8238
4286,7.701
4287,8.0885
4288,8.6859
4289,7.8319
4290,16.664
4291,3.3357
4292,4.0901
4293,4.7362
4294,16.478
4295,11.571
4296,4.8072
4297,2.3868
4298,3.3524
4299,4.701
4300,7.1336
4301,3.4182
4302,6.6872
4303,10.625
4304,7.8883
4305,8.7828
4306,11.412
4307,13.385
4308,7.4801
4309,14.952
4310,12.709
4311,28.225
4312,19.762
4313,14.371
4314,12.503
4315,8.5279
4316,2.4495
4317,7.6449
4318,2.3611
4319,2.389
4320,2.0243
4321,4.4032
4322,1.9135
4323,1.8118
4324,7.1365
4325,6.6672
4326,6.2886
4327,17.136
4328,9.9261
4329,9.3582
4330,11.88
4331,7.5852
4332,9.1317
4333,6.316
4334,21.834
4335,21.669
4336,25.638
4337,14.658
4338,11.884
4339,21.433
4340,23.173
4341,17.685
4342,12.711
4343,4.8199
4344,4.1473
4345,3.8376
4346,3.2705
4347,4.4013
4348,8.3215
4349,5.9024
4350,4.4556
4351,5.7042
4352,9.2679
4353,7.1156
4354,8.2754
4355,6.3733
4356,6.6186
4357,7.6486
4358,9.1781
4359,6.9462
4360,9.5642
4361,6.3582
4362,6.9065
4363,4.7037
4364,8.1978
4365,13.645
4366,11.539
4367,11.343
4368,13.08
4369,8.4709
4370,16.218
4371,13.532
4372,9.4653
4373,14.27
4374,3.885
4375,14.759
4376,5.5059
4377,4.5401
4378,6.6488
4379,1.9842
4380,1.9348
4381,2.0704
4382,4.9776
4383,34.302
4384,16.66
4385,13.304
4386,23.661
4387,17.102
4388,15.684
4389,12.087
4390,10.363
4391,3.4314
4392,4.5999
4393,4.6342
4394,7.8779
4395,8.5289
4396,3.1007
4397,1.8427
4398,2.0029
4399,3.1321
4400,5.5513
4401,6.4807
4402,11.426
4403,10.385
4404,10.674
4405,12.27
4406,11.329
4407,14.486
4408,7.1303
4409,7.6031
4410,12.395
4411,6.4773
4412,11.043
4413,14.325
4414,14.713
4415,6.8271
4416,9.7008
4417,5.6549
4418,7.7844
4419,6.636
4420,8.1653
4421,2.898
4422,3.3194
4423,5.9725
4424,4.4802
4425,6.0623
4426,8.6766
4427,3.363
4428,18.235
4429,17.412
4430,13.757
4431,6.3587
4432,11.409
4433,11.376
4434,8.7605
4435,3.0749
4436,5.6602
4437,4.6722
4438,3.7172
4439,4.4538
4440,3.1402
4441,3.7504
4442,5.1662
4443,12.759
4444,15.199
4445,21.339
4446,18.876
4447,17.404
4448,17.686
4449,12.073
4450,15.704
4451,13.885
4452,9.5965
4453,4.6396
4454,5.7221
4455,9.3853
4456,6.7757
4457,8.3697
4458,16.488
4459,12.229
4460,11.215
4461,12.217
4462,17.006
4463,10.904
4464,16.659
4465,5.3591
4466,6.534
4467,10.823
4468,8.4366
4469,8.9529
4470,10.095
4471,3.1388
4472,3.6841
4473,6.2144
4474,5.1545
4475,12.449
4476,7.1741
4477,12.933
4478,20.87
4479,12.141
4480,14.549
4481,14.224
4482,6.5784
4483,9.7414
4484,11.033
4485,4.8512
4486,9.1288
4487,7.3467
4488,11.156
4489,14.362
4490,6.8925
4491,8.3343
4492,7.5229
4493,5.9944
4494,2.483
4495,8.0759
4496,6.4774
4497,9.7513
4498,8.6455
4499,9.0586
4500,5.3617
4501,10.196
4502,10.186
4503,10.824
4504,11.16
4505,11.06
4506,14.634
4507,7.3332
4508,5.7459
4509,8.8542
4510,13.331
4511,7.4728
4512,9.2661
4513,7.0655
4514,8.8054
4515,11.85
4516,4.8132
4517,6.2919
4518,9.8843
4519,9.9504
4520,15.127
4521,8.0095
4522,6.6623
4523,6.0676
4524,5.9587
4525,4.9487
4526,11.619
4527,6.9416
4528,10.418
4529,13.658
4530,9.8938
4531,12.407
4532,8.5154
4533,8.507
4534,13.94
4535,17.109
4536,9.2473
1211,0.27513
1212,0.50396
1213,0.36098
1214,1.1311
1215,0.4836
1216,0.56395
1217,0.23712
1218,3.3674
1219,0.76836
1220,0.38689
1221,1.1565
1222,0.32763
1223,0.88644
1224,2.5897
1225,9.99E-02
1226,0.67308
1227,0.96668
1228,0.40088
1229,3.3667
1230,5.5932
1231,3.7999
1232,1.3066
1233,0.41184
1234,0.17701
1235,0.17339
1236,0.27796
1237,0.35476
1238,0.54518
1239,0.22543
1240,0.33834
1241,0.38186
1242,0.29208
1243,0.17779
1244,2.02E-02
1245,0.15199
1246,0.56074
1247,0.47551
1248,0.44058
1249,0.36161
1250,0.23292
1251,0.24127
1252,0.17783
1253,1.3759
1254,0.51943
1255,0.46522
1256,1.3656
1257,0.441
1258,0.80804
1259,1.2442
1260,1.6911
1261,0.59025
1262,0.43386
1263,6.31E-02
1264,0.23904
1265,0.32732
1266,0.35952
1267,1.4648
1268,3.0081
1269,5.1636
1270,2.8944
1271,1.399
1272,2.61E-02
1273,0.45226
1274,1.5314
1275,0.9738
1276,0.79841
1277,0.54463
1278,0.19612
1279,0.61529
1280,0.303
1281,0.62229
1282,1.0431
1283,0.89658
1284,0.76975
1285,0.6247
1286,0.25811
1287,0.24832
1288,0.35171
1289,0.29607
1290,0.15288
1291,0.30252
1292,0.55263
1293,0.40588
1294,0.86542
1295,1.5222
1296,3.471
1297,3.0868
1298,1.0379
1299,0.48202
1300,0.59363
1301,0.14734
1302,7.68E-02
1303,1.9178
1304,1.7468
1305,1.68
1306,0.61219
1307,0.71797
1308,0.3654
1309,0.8997
1310,0.61485
1311,0.63149
1312,0.84947
1313,1.9086
1314,0.76792
1315,0.54828
1316,0.2017
1317,0.26573
1318,0.68946
1319,1.3349
1320,1.3036
1321,0.51452
1322,0.22841
1323,0.39623
1324,0.27819
1325,0.53181
1326,0.12909
1327,0.19849
1328,0.19717
1329,0.21957
1330,0.26747
1331,0.39058
1332,1.1532
1333,0.17536
1334,0.73745
1335,0.5241
1336,0.40823
1337,0.24401
1338,0.14473
1339,0.72677
1340,0.32181
1341,4.2214
1342,1.2209
1343,0.16159
1344,0.49742
1345,0.39602
1346,0.81722
1347,1.6398
1348,2.5173
1349,2.2972
1350,1.0981
1351,0.35317
1352,0.37055
1353,0.66557
1354,2.4029
1355,0.2626
1356,0.4144
1357,0.74347
1358,1.1148
1359,1.263
1360,0.36975
1361,0.54749
1362,0.60894
1363,0.59547
1364,0.51635
1365,0.5461
1366,0.39078
1367,0.59576
1368,2.1037
1369,0.53319
1370,0.90833
1371,0.6145
1372,0.30163
1373,1.7234
1374,3.7115
1375,1.0132
1376,0.23776
1377,0.17608
1378,0.50966
1379,0.33598
1380,0.27739
1381,0.80808
1382,0.82826
1383,1.4151
1384,1.6336
1385,0.82897
1386,0.20194
1387,0.81095
1388,0.78574
1389,0.80102
1390,0.80351
1391,0.66367
1392,0.65107
1393,0.1972
1394,0.22765
1395,0.20305
1396,0.17774
1397,0.7242
1398,0.58457
1399,0.7309
1400,0.22862
1401,0.27231
1402,0.29491
1403,1.2078
1404,0.81392
1405,0.24479
1406,0.39164
1407,0.49376
1408,0.72391
1409,0.34933
1410,2.6908
1411,0.56889
1412,0.75926
1413,0.56005
1414,1.0193
1415,0.83724
1416,0.26033
1417,0.49628
1418,0.37618
1419,0.16387
1420,0.1472
1421,0.33308
1422,0.12512
1423,0.65319
1424,0.22071
1425,2.55E-02
1426,0.60504
1427,1.4884
1428,1.4624
1429,0.49232
1430,0.51072
1431,0.11045
1432,0.38576
1433,0.12631
1434,0.36192
1435,0.61081
1436,1.2589
1437,0.8285
1438,3.3268
1439,3.0598
1440,0.87205
1441,1.6523
1442,0.17202
1443,0.13494
1444,0.17986
1445,0.42549
1446,0.48349
1447,0.84916
1448,0.64486
1449,2.168
1450,1.239
1451,3.1565
1452,2.3312
1453,1.745
1454,3.4146
1455,0.86726
1456,1.1933
1457,1.0792
1458,0.27169
1459,0.2135
1460,0.2018
1461,0.64703
1462,0.62885
1463,2.0416
1464,1.9688
1465,1.053
1466,0.18978
1467,0.21817
1468,0.76937
1469,0.72609
1470,0.55885
1471,1.7138
1472,0.89876
1473,0.85378
1474,1.4892
1475,0.47726
1476,0.48084
1477,0.54232
1478,0.76657
1479,0.65674
1480,0.68059
1481,1.3884
1482,0.54037
1483,0.81093
1484,0.7308
1485,1.1718
1486,0.92163
1487,0.83002
1488,1.1314
1489,0.68241
1490,0.38689
1491,0.40887
1492,0.95797
1493,0.26626
1494,1.1686
1495,0.80612
1496,1.8472
1497,1.0632
1498,0.79166
1499,0.66954
1500,0.6746
1501,1.0147
1502,0.51287
1503,0.39417
1504,0.24561
1505,0.57341
1506,0.36082
1507,0.20744
1508,0.44593
1509,0.62488
1510,1.3846
1511,1.5761
1512,2.7004
1513,3.5124
1514,3.8775
1515,1.8653
1516,4.3886
1517,3.8849
1518,1.8683
1519,0.87166
1520,1.0293
1521,0.65636
1522,0.79156
1523,0.53508
1524,0.72277
1525,0.39659
1526,1.1212
1527,0.51385
1528,1.2187
1529,1.7486
1530,0.25209
1531,1.2237
1532,0.2886
1533,0.70395
1534,1.04
1535,0.72448
1536,0.60544
1537,0.64146
1538,0.6438
1539,1.0625
1540,0.77923
1541,0.71507
1542,1.1627
1543,0.66369
1544,0.64865
1545,0.4055
1546,0.8058
1547,0.51252
1548,0.75305
1549,0.46078
1550,0.56244
1551,0.56729
1552,1.6566
1553,0.56268
1554,0.61335
1555,1.3975
1556,0.37051
1557,0.25245
1558,2.2218
1559,1.1783
1560,0.80965
1561,0.66722
1562,1.0524
1563,0.60579
1564,0.72374
1565,0.77269
1566,1.678
1567,0.82852
1568,1.019
1569,0.69876
1570,0.31946
1571,0.44903
1572,0.75064
1573,0.81107
1574,0.72344
1575,0.85419
1576,1.1824
1577,0.81327
1578,0.87471
1579,2.7673
1580,0.68612
1581,0.57597
1582,2.0047
1583,0.50679
1584,1.1195
1585,0.60826
1586,0.79354
1587,0.80213
1588,0.70504
1589,0.81787
1590,0.19338
1591,0.20835
1592,0.19379
1593,0.31597
1594,0.51402
1595,0.49564
1596,0.63818
1597,0.22481
1598,0.59829
1599,0.401
1600,0.22225
1601,0.2856
1602,0.42883
1603,0.47263
1604,0.42001
1605,0.2439
1606,0.37338
1607,0.47266
1608,0.45769
1609,1.4186
1610,0.53832
1611,1.1508
1612,0.82653
1613,0.9293
1614,1.3509
1615,1.2276
1616,1.0702
1617,0.74898
1618,0.64896
1619,0.74118
1620,1.1652
1621,0.6703
1622,1.1357
1623,0.82229
1624,0.2309
1625,0.6239
1626,0.44309
1627,0.49175
1628,0.5126
1629,0.62519
1630,0.42597
1631,0.59256
1632,0.52063
1633,0.61658
1634,0.58296
1635,0.63039
1636,0.35675
1637,0.45651
1638,0.53627
1639,0.39612
1640,0.55292
1641,0.47348
1642,0.31736
1643,0.52838
1644,0.53502
1645,0.43653
1646,0.62828
1647,0.46277
1648,0.24392
1649,0.17697
1650,0.25265
1651,0.23456
1652,0.39392
1653,0.19203
1654,0.27329
1655,0.28464
1656,0.26339
1657,0.16872
1658,0.23702
1659,0.16143
1660,0.26617
1661,0.27791
1662,3.266
1663,3.3038
1664,1.6437
1665,2.9216
1666,2.4912
1667,3.5066
1668,2.3124
1669,3.1205
1670,2.9752
1671,3.5824
1672,3.8536
1673,2.5422
1674,2.2933
1675,2.5038
1676,3.044
1677,0.67452
1678,1.3872
1679,0.57164
1680,1.0315
1681,0.76392
1682,1.1982
1683,0.6098
1684,0.3679
1685,0.39598
1686,0.62108
1687,0.33622
1688,0.25674
1689,0.23101
1690,1.0099
1691,0.71069
1692,0.4176
1693,0.4348
1694,0.52109
1695,0.6124
1696,0.86555
1697,1.0506
1698,1.1445
1699,1.0088
1700,0.83692
1701,0.59072
1702,0.4397
1703,0.27697
1704,0.46695
1705,0.24359
1706,0.55227
1707,0.23915
1708,0.41732
1709,0.48918
1710,0.40965
1711,0.41311
1712,0.53703
1713,0.54743
1714,2.3335
1715,0.50684
1716,0.89587
1717,0.63464
1718,0.57165
1719,1.3007
1720,0.44101
1721,0.99913
1722,1.1933
1723,2.3686
1724,1.3482
1725,0.57065
1726,4.0905
1727,2.7438
1728,1.8691
1729,2.0338
1730,2.1508
1731,3.1345
1732,2.0326
1733,2.2211
1734,3.0445
1735,3.2143
1736,1.7856
1737,2.0608
1738,0.32006
1739,0.67874
1740,0.1087
1741,0.45964
1742,0.38845
1743,0.61846
1744,0.84264
1745,0.54818
1746,0.53027
1747,0.69723
1748,0.48617
1749,0.7463
1750,0.70199
1751,1.8026
1752,0.31698
1753,0.77177
1754,1.5335
1755,0.29399
1756,0.44809
1757,0.98771
1758,0.6875
1759,0.44186
1760,4.4575
1761,2.8831
1762,3.9315
1763,3.4958
1764,2.4437
1765,3.8019
1766,2.2506
1767,4.6811
1768,4.9362
1769,3.6526
1770,4.6305
1771,4.8741
1772,4.7041
1773,2.5479
1774,4.0477
1775,3.0408
1776,2.0101
1777,2.7481
1778,3.7671
1779,2.7404
1780,0.6962
1781,1.8943
1782,1.1899
1783,0.49411
1784,0.76905
1785,0.91913
1786,1.5085
1787,0.97221
1788,0.73632
1789,0.28648
1790,0.31552
1791,0.32005
1792,0.12999
1793,0.19217
1794,0.13237
1795,0.20546
1796,0.14125
1797,0.54614
1798,0.11803
1799,0.17445
1800,0.18183
1801,0.32802
1802,0.2161
1803,0.28478
1804,0.30403
1805,0.12566
1806,0.2707
1807,0.33311
1808,0.60187
1809,0.19204
1810,0.38282
1811,0.3363
1812,0.37757
1813,0.23658
1814,0.29892
1815,0.37441
1816,0.39728
1817,0.30868
1818,0.60605
1819,0.89677
1820,0.35588
1821,0.4441
1822,0.40271
1823,0.42544
1824,0.2575
1825,0.34113
1826,0.27717
1827,0.26241
1828,0.22452
1829,0.82538
1830,0.48289
1831,0.33692
1832,0.38386
1833,0.41004
1834,0.37854
1835,0.3668
1836,0.48486
1837,0.28106
1838,0.30778
1839,0.28549
1840,0.72617
1841,0.46294
1842,0.37033
1843,0.47733
1844,0.41328
1845,0.27881
1846,0.22947
1847,0.22532
1848,0.15414
1849,0.22145
1850,0.3475
1851,0.3287
1852,0.28399
1853,0.27932
1854,0.22195
1855,0.17738
1856,0.25782
1857,0.17858
1858,0.32858
1859,0.36595
1860,0.35415
1861,0.30282
1862,0.3519
1863,0.18178
1864,0.22626
1865,0.36324
1866,0.35684
1867,0.31672
1868,0.33163
1869,0.29307
1870,0.40325
1871,0.30537
1872,0.30496
1873,0.25159
1874,0.26873
1875,0.15706
1876,0.3415
1877,0.33734
1878,8.27E-02
1879,0.103
1880,0.12287
1881,0.1652
1882,0.16249
1883,0.22618
1884,0.15316
1885,0.14374
1886,0.47516
1887,0.24144
1888,0.53857
1889,0.30061
1890,0.45376
1891,0.49595
1892,0.28503
1893,0.52133
1894,0.52335
1895,0.39313
1896,0.49772
1897,0.39484
1898,0.27486
1899,0.3541
1900,0.14091
1901,0.23083
1902,0.14892
1903,0.25004
1904,0.23915
1905,0.22034
1906,0.3775
1907,0.28813
1908,0.18046
1909,0.23662
1910,0.18428
1911,0.25492
1912,0.10772
1913,0.9487
1914,1.7236
1915,1.6927
1916,2.1766
1917,0.69749
1918,0.99842
1919,0.71731
1920,1.0887
1921,1.2885
1922,1.6467
1923,0.30488
1924,1.4831
1925,0.85985
1926,1.6307
1927,0.36201
1928,0.40433
1929,0.33548
1930,0.44905
1931,0.37953
1932,0.34977
1933,0.41011
1934,0.53766
1935,0.59617
1936,0.52417
1937,0.29138
1938,0.45204
1939,0.3915
1940,0.29904
1941,0.3337
1942,0.36593
1943,0.50668
1944,0.71211
1945,1.0914
1946,1.3362
1947,1.0458
1948,1.0296
1949,0.52306
1950,0.41348
1951,0.29107
1952,0.3167
1953,0.60748
1954,0.46115
1955,0.45996
1956,0.37141
1957,0.21055
1958,0.50106
1959,0.55963
1960,0.50237
1961,0.41777
1962,0.48492
1963,0.57025
1964,0.65851
1965,0.80486
1966,0.80888
1967,0.58335
1968,0.55238
1969,0.72672
1970,0.89895
1971,0.78821
1972,0.89373
1973,0.80672
1974,0.75006
1975,1.358
1976,1.0241
1977,1.1741
1978,0.68888
1979,1.0954
1980,1.552
1981,1.6609
1982,1.3559
1983,1.3615
1984,0.34054
1985,0.41178
1986,0.30219
1987,0.70828
1988,0.38336
1989,0.2891
1990,0.63049
1991,0.79618
1992,0.87144
1993,0.59559
1994,0.52922
1995,0.47407
1996,0.73031
1997,0.69136
1998,0.64806
1999,0.30324
2000,0.29449
2001,0.90755
2002,0.27618
2003,0.58998
2004,0.51004
2005,0.42878
2006,0.73517
2007,0.54628
2008,0.38185
2009,0.28883
2010,0.39523
2011,0.49135
2012,0.34332
2013,0.13207
2014,0.18881
2015,0.17408
2016,0.22634
2017,0.47366
2018,0.22444
2019,0.26451
2020,0.3366
2021,0.39911
2022,0.51813
2023,0.27896
2024,0.35454
2025,0.18666
2026,6.22E-02
2027,0.46244
2028,0.32478
2029,2.2182
2030,1.1192
2031,1.6574
2032,4.0025
2033,2.4173
2034,3.5782
2035,4.0044
2036,4.6395
2037,4.3072
2038,2.1196
2039,3.2771
2040,2.2845
2041,1.0804
2042,1.5998
2043,1.0546
2044,0.21768
2045,8.57E-02
2046,0.17525
2047,0.42224
2048,0.21039
2049,0.19177
2050,0.45352
2051,1.015
2052,1.1047
2053,1.082
2054,0.73488
2055,0.80869
2056,0.86185
2057,0.79517
2058,0.72101
2059,0.76131
2060,0.98177
2061,0.92633
2062,0.71885
2063,0.79427
2064,0.57756
2065,0.27227
2066,0.53968
2067,0.64281
2068,0.2529
2069,0.16653
2070,0.19471
2071,0.34303
2072,0.21137
2073,0.17928
2074,0.72296
2075,0.66003
2076,0.61412
2077,0.37468
2078,0.60841
2079,0.64365
2080,0.4401
2081,0.2508
2082,0.23347
2083,0.43294
2084,0.48895
2085,0.80843
2086,0.65673
2087,0.27233
2088,0.72412
2089,0.82437
2090,0.68942
2091,0.67925
2092,0.46299
2093,0.60365
2094,0.87694
2095,1.0595
2096,0.74217
2097,0.69178
2098,0.7368
2099,0.74282
2100,0.74781
2101,0.76072
2102,0.77015
2103,0.73438
2104,0.92958
2105,0.56367
2106,0.54363
2107,0.58723
2108,0.35186
2109,0.57314
2110,0.65358
2111,0.3183
2112,0.2416
2113,0.27415
2114,0.31299
2115,0.33993
2116,0.30428
2117,0.60387
2118,0.19763
2119,0.69669
2120,0.33386
2121,0.43618
2122,0.39194
2123,0.28157
2124,0.47729
2125,8.94E-02
2126,0.37715
2127,0.21791
2128,0.25357
2129,0.30299
2130,0.52203
2131,0.35978
2132,0.50815
2133,0.5116
2134,0.53321
2135,0.62082
2136,0.30442
2137,0.37403
2138,0.43214
2139,0.56493
2140,0.39239
2141,0.42978
2142,0.50779
2143,0.79436
2144,0.49634
2145,0.78247
2146,0.83971
2147,0.77112
2148,0.80191
2149,0.89216
2150,1.6269
2151,1.357
2152,1.4035
2153,1.4317
2154,1.3289
2155,1.3407
2156,2.996
2157,2.6815
2158,2.6513
2159,3.3075
2160,3.4351
2161,1.9451
2162,2.8875
2163,3.4275
2164,2.4256
2165,3.0483
2166,3.3409
2167,2.3459
2168,2.601
2169,2.6898
2170,3.1858
2171,2.4085
2172,0.85715
2173,0.71901
2174,0.93622
2175,1.1371
2176,1.2424
2177,0.8275
2178,0.63683
2179,0.30926
2180,0.44969
2181,0.55712
2182,0.45161
2183,0.54393
2184,0.52481
2185,0.51252
2186,0.37128
2187,0.3608
2188,0.65267
2189,0.46993
2190,0.93796
2191,1.1756
2192,0.55782
2193,0.63766
2194,0.23855
2195,0.14851
2196,0.15584
2197,0.23882
2198,0.31344
2199,0.38951
2200,0.43668
2201,8.69E-02
2202,0.39749
2203,0.46385
2204,1.2602
2205,2.2345
2206,1.7755
2207,1.5565
2208,0.6286
2209,1.6123
2210,2.1906
2211,2.5245
2212,1.5961
2213,0.80709
2214,0.89893
2215,0.91134
2216,1.6551
2217,1.0926
2218,2.3574
2219,2.1527
2220,0.75579
2221,1.0958
2222,0.85013
2223,0.61028
2224,0.71094
2225,0.8992
2226,0.98028
2227,0.82805
2228,0.82229
2229,0.56225
2230,0.61968
2231,0.63104
2232,0.63071
2233,0.70378
2234,0.60756
2235,0.45913
2236,0.4998
2237,0.33292
2238,0.25316
2239,0.62223
2240,0.8022
2241,0.84898
2242,0.77295
2243,0.8451
2244,0.76536
2245,0.48114
2246,0.41062
2247,0.57535
2248,0.64651
2249,0.63396
2250,0.65201
2251,0.61718
2252,0.68048
2253,0.6343
2254,0.70126
2255,0.61587
2256,0.48233
2257,0.58967
2258,0.54363
2259,0.69601
2260,0.55539
2261,0.4856
2262,0.53181
2263,0.42082
2264,0.63708
2265,0.57965
2266,0.50779
2267,0.80824
2268,0.84997
2269,0.64447
2270,0.57739
2271,0.64088
2272,0.69324
2273,1.8138
2274,1.3817
2275,1.6176
2276,1.8034
2277,1.6965
2278,0.98258
2279,1.378
2280,1.5835
2281,0.49827
2282,0.47192
2283,0.746
2284,0.82821
2285,0.91173
2286,0.70394
2287,0.74906
2288,0.30022
2289,0.29588
2290,0.64746
2291,0.59046
2292,0.54507
2293,0.44652
2294,0.55965
2295,0.40295
2296,0.22755
2297,0.20446
2298,0.43938
2299,0.50548
2300,0.41698
2301,0.39334
2302,0.2306
2303,0.44557
2304,0.50096
2305,0.38133
2306,0.41516
2307,0.48477
2308,0.8023
2309,0.6449
2310,0.50471
2311,0.51639
2312,0.98335
2313,1.1665
2314,1.6763
2315,0.91344
2316,0.65219
2317,0.66506
2318,0.93683
2319,1.0775
2320,1.6288
2321,0.70624
2322,1.1706
2323,0.70653
2324,1.1064
2325,0.62432
2326,0.34667
2327,0.35564
2328,0.60976
2329,0.61536
2330,0.81906
2331,0.6591
2332,0.34207
2333,0.15791
2334,0.25934
2335,0.1947
2336,0.1471
2337,0.17798
2338,0.34082
2339,0.24602
2340,0.31416
2341,0.38808
2342,0.46191
2343,0.39112
2344,0.25558
2345,0.26985
2346,0.32331
2347,0.44587
2348,0.20403
2349,0.38522
2350,0.22505
2351,0.49534
2352,0.38136
2353,0.30671
2354,0.23556
2355,0.67838
2356,0.57691
2357,0.60747
2358,0.30053
2359,0.58906
2360,0.85875
2361,0.9578
2362,1.0864
2363,0.4877
2364,1.2509
2365,0.29368
2366,0.12424
2367,0.13369
2368,0.29928
2369,0.34184
2370,0.16761
2371,0.45586
2372,0.16703
2373,0.26342
2374,0.15887
2375,9.45E-02
2376,0.23602
2377,0.13361
2378,0.11913
2379,0.42051
2380,0.363
2381,0.22733
2382,1.7968
2383,0.67665
2384,0.75002
2385,0.14589
2386,0.52399
2387,0.19782
2388,0.23831
2389,0.13447
2390,1.0531
2391,0.20161
2392,0.1945
2393,0.48387
2394,0.31948
2395,1.4277
2396,0.74679
2397,0.84499
2398,1.3148
2399,1.1468
2400,1.3994
2401,0.27783
2402,0.45761
2403,0.29681
2404,0.18151
2405,0.42689
2406,0.39141
2407,1.0842
2408,0.57549
2409,0.61222
2410,0.66651
2411,0.32898
2412,0.50482
2413,0.5137
2414,0.53156
2415,0.5214
2416,0.45011
2417,0.5749
2418,0.33633
2419,0.19507
2420,0.38967
2421,0.38792
2422,0.30168
2423,0.30989
2424,0.17157
2425,0.45908
2426,0.28913
2427,0.21125
2428,0.18621
2429,0.16658
2430,0.11969
2431,0.23004
2432,0.22572
2433,0.27233
2434,0.6905
2435,0.65598
2436,0.77315
2437,0.8672
2438,0.73774
2439,0.78023
2440,0.56426
2441,1.0108
2442,0.72626
2443,0.79999
2444,3.7338
2445,3.6209
2446,2.9536
2447,1.8371
2448,1.0444
2449,1.4325
2450,0.93601
2451,0.54039
2452,0.43042
2453,0.57331
2454,0.10361
2455,0.13057
2456,0.28192
2457,0.37865
2458,0.32056
2459,0.37968
2460,0.53913
2461,0.3187
2462,0.48466
2463,0.63715
2464,0.59934
2465,0.20666
2466,0.40794
2467,0.4071
2468,0.44458
2469,0.49284
2470,0.51569
2471,0.50015
2472,0.42709
2473,0.80328
2474,0.72011
2475,0.79845
2476,1.1747
2477,0.76772
2478,0.51183
2479,0.55675
2480,1.6274
2481,0.8739
2482,1.2585
2483,1.8936
2484,1.4363
2485,0.88726
2486,2.4988
2487,1.5439
2488,2.093
2489,3.0615
2490,2.0499
2491,2.7544
2492,2.4183
2493,3.1207
2494,1.3369
2495,1.7542
2496,1.9793
2497,2.8485
2498,2.329
2499,1.9324
2500,2.4381
2501,0.84774
2502,0.97808
2503,1.1449
2504,1.1817
2505,1.2128
2506,1.0498
2507,1.12
2508,1.0877
2509,0.57933
2510,0.71095
2511,0.30377
2512,0.49649
2513,0.56724
2514,0.28697
2515,0.28022
2516,0.43341
2517,0.56415
2518,0.43079
2519,0.47979
2520,0.53588
2521,0.64388
2522,0.62979
2523,0.53632
2524,0.47419
2525,0.4683
2526,2.1987
2527,2.1794
2528,1.6339
2529,1.2159
2530,0.60012
2531,0.22167
2532,0.55285
2533,0.65312
2534,0.47528
2535,0.31045
2536,0.58626
2537,0.47497
2538,0.54249
2539,0.47408
2540,0.7326
2541,0.6509
2542,0.70073
2543,0.55429
2544,0.76861
2545,0.73888
2546,0.62371
2547,0.96892
2548,1.3799
2549,0.95303
2550,0.94481
2551,1.039
2552,1.2186
2553,0.81741
2554,1.3434
2555,1.0493
2556,1.3553
2557,0.79535
2558,0.94152
2559,0.30352
2560,0.30806
2561,0.45139
2562,0.40628
2563,0.4059
2564,0.36631
2565,0.2571
2566,0.3133
2567,0.36707
2568,0.5396
2569,0.65432
2570,0.50812
2571,0.61108
2572,0.56271
2573,0.43171
2574,0.63011
2575,0.6422
2576,0.70147
2577,0.6359
2578,0.64963
2579,0.61694
2580,0.70534
2581,0.54657
2582,0.47666
2583,0.65647
2584,0.66271
2585,0.40436
2586,0.2387
2587,0.62462
2588,0.42564
2589,0.60439
2590,0.53646
2591,0.56335
2592,0.6529
2593,0.65559
2594,0.45639
2595,0.52115
2596,0.51786
2597,0.55219
2598,0.64646
2599,0.61355
2600,0.6155
2601,0.2313
2602,0.40007
2603,0.44361
2604,0.29376
2605,0.36306
2606,0.39119
2607,0.58163
2608,0.47112
2609,0.59847
2610,0.47065
2611,0.34862
2612,0.47429
2613,0.46461
2614,0.42224
2615,2.4851
2616,1.6997
2617,2.5539
2618,1.1295
2619,1.7662
2620,1.1987
2621,1.6772
2622,2.2721
2623,0.30356
2624,0.83203
2625,0.26305
2626,1.1531
2627,0.83092
2628,1.0767
2629,0.37192
2630,0.44204
2631,0.68134
2632,0.56301
2633,1.182
2634,0.44446
2635,0.96023
2636,0.71397
2637,1.0956
2638,0.80694
2639,0.78935
2640,0.69697
2641,0.8836
2642,0.39001
2643,0.76128
2644,0.58514
2645,0.68424
2646,0.54053
2647,0.52555
2648,0.67573
2649,0.62274
2650,0.68919
2651,0.19174
2652,0.1463
2653,0.41611
2654,0.40383
2655,0.90866
2656,1.0437
2657,0.54558
2658,0.33307
2659,0.29362
2660,0.32045
2661,0.74821
2662,1.0565
2663,1.1457
2664,1.42
2665,2.601
2666,2.7892
2667,1.449
2668,2.5816
2669,2.4276
2670,2.9362
2671,3.5901
2672,3.7694
2673,3.9966
2674,3.7951
2675,2.6895
2676,0.81861
2677,0.70819
2678,0.86401
2679,0.20524
2680,0.34024
2681,0.56004
2682,0.31446
2683,0.58032
2684,0.36258
2685,0.38931
2686,0.49947
2687,0.49158
2688,0.22268
2689,0.22903
2690,0.25828
2691,0.28899
2692,0.29091
2693,0.43493
2694,0.43517
2695,0.21381
2696,0.32347
2697,0.34245
2698,0.24578
2699,0.31552
2700,0.22736
2701,0.61908
2702,0.55378
2703,0.68451
2704,0.72372
2705,0.78416
2706,0.76052
2707,0.71546
2708,0.88402
2709,1.1014
2710,0.80239
2711,0.58136
2712,0.77635
2713,0.91711
2714,0.75984
2715,0.916
2716,0.81269
2717,0.89806
2718,0.81158
2719,1.0661
2720,1.2294
2721,1.2228
2722,1.2236
2723,1.2001
2724,1.2738
2725,1.3387
2726,1.333
2727,1.3886
2728,0.99784
2729,0.49057
2730,0.47234
2731,0.89618
2732,0.90383
2733,0.98324
2734,0.80705
2735,0.14124
2736,9.22E-02
2737,0.53555
2738,0.42014
2739,0.43406
2740,0.20755
2741,0.31324
2742,0.52338
2743,0.62954
2744,0.71203
2745,0.30345
2746,0.43053
2747,1.0733
2748,0.52746
2749,1.3054
2750,0.74353
2751,0.52048
2752,0.81553
2753,0.57716
2754,0.72836
2755,0.93257
2756,0.80687
2757,0.85465
2758,0.72769
2759,0.60315
2760,0.69385
2761,0.68552
2762,0.6453
2763,0.33496
2764,0.29744
2765,0.22385
2766,0.28756
2767,0.20811
2768,0.43658
2769,0.4212
2770,0.44476
2771,0.41201
2772,0.24443
2773,0.36386
2774,0.65129
2775,0.74789
2776,0.71355
2777,0.68047
2778,0.55094
2779,0.647
2780,0.64239
2781,0.88687
2782,0.7658
2783,0.73209
2784,0.7402
2785,0.90544
2786,0.85769
2787,0.2357
2788,0.33356
2789,0.37551
2790,0.33842
2791,0.36376
2792,0.33172
2793,0.38519
2794,0.33742
2795,0.32889
2796,0.34925
2797,0.62741
2798,0.68772
2799,1.0966
2800,0.5551
2801,0.3879
2802,0.78059
2803,0.36595
2804,0.39274
2805,0.23022
2806,0.29659
2807,0.59072
2808,0.32716
2809,0.38469
2810,0.4764
2811,0.49939
2812,0.52621
2813,0.53905
2814,0.47105
2815,0.59332
2816,0.74187
2817,0.98169
2818,0.67172
2819,1.063
2820,0.46538
2821,2.1304
2822,2.1767
2823,0.97843
2824,1.3639
2825,1.3557
2826,2.1284
2827,0.52912
2828,0.51606
2829,0.57845
2830,0.41272
2831,0.49806
2832,0.73688
2833,0.66651
2834,0.68589
2835,0.54963
2836,0.664
2837,0.6896
2838,0.65481
2839,0.63568
2840,0.52701
2841,0.80851
2842,0.69225
2843,0.64985
2844,0.51869
2845,0.72719
2846,0.94516
2847,0.81414
2848,0.71729
2849,0.14224
2850,0.31256
2851,0.34173
2852,0.56868
2853,0.18048
2854,0.29337
2855,0.32934
2856,0.35428
2857,0.31064
2858,0.35366
2859,0.35459
2860,0.15234
2861,6.06E-02
2862,0.19393
2863,0.5897
2864,1.1486
2865,0.15609
2866,1.3242
2867,1.5663
2868,0.92035
2869,0.51485
2870,0.49776
2871,0.38276
2872,0.51622
2873,0.58701
2874,0.51238
2875,0.22784
2876,0.39181
2877,0.45331
2878,0.39366
2879,0.7336
2880,0.82026
2881,0.81432
2882,0.69786
2883,1.4911
2884,1.2599
2885,0.98894
2886,1.4897
2887,1.5828
2888,0.99829
2889,1.0526
2890,2.7446
2891,1.4498
2892,1.6909
2893,2.7219
2894,1.2769
2895,1.4382
2896,0.69663
2897,0.46367
2898,0.45293
2899,1.1132
2900,0.52685
2901,0.75346
2902,0.19233
2903,0.26717
2904,0.34407
2905,0.29492
2906,0.45944
2907,0.33632
2908,0.299
2909,0.29111
2910,0.46408
2911,0.45065
2912,0.51724
2913,0.52102
2914,0.50207
2915,0.49345
2916,0.62555
2917,0.45489
2918,0.56401
2919,0.50614
2920,0.63254
2921,0.59661
2922,0.56155
2923,0.58772
2924,0.72724
2925,1.1296
2926,0.72709
2927,0.51972
2928,0.75304
2929,0.62077
2930,1.0764
2931,0.57495
2932,0.50043
2933,0.51405
2934,0.56772
2935,1.0548
2936,2.6702
2937,1.8351
2938,2.0271
2939,0.74364
2940,1.3301
2941,2.3065
2942,2.5213
2943,0.9099
2944,1.7452
2945,3.2183
2946,1.6511
2947,2.7564
2948,3.0037
2949,1.2285
2950,2.1024
2951,1.5274
2952,1.5443
2953,2.1884
2954,1.7868
2955,1.7271
2956,1.8644
2957,1.4513
2958,1.6902
2959,1.4556
2960,2.212
2961,2.8259
2962,2.3805
2963,2.9906
2964,1.1177
2965,0.95031
2966,0.98702
2967,0.81937
2968,0.8364
2969,1.2383
2970,1.2674
2971,1.1612
2972,1.1741
2973,1.1418
2974,0.93786
2975,0.46057
2976,0.5378
2977,0.53975
2978,0.44493
2979,0.50215
2980,0.41718
2981,0.36248
2982,0.37661
2983,0.46572
2984,0.39659
2985,0.65078
2986,0.39825
2987,0.48553
2988,0.51591
2989,0.47138
2990,1.5671
2991,1.0137
2992,1.3164
2993,1.4872
2994,1.0146
2995,1.4445
2996,0.95811
2997,1.0642
2998,0.5761
2999,1.1223
3000,0.45245
3001,0.64839
3002,0.3806
3003,0.44952
3004,0.49727
3005,0.71106
3006,0.89341
3007,0.68506
3008,0.7504
3009,0.72704
3010,0.63369
3011,0.61004
3012,0.67829
3013,0.53198
3014,1.3113
3015,1.4005
3016,1.5102
3017,0.99326
3018,0.77292
3019,0.9435
3020,0.65839
3021,1.0479
3022,0.56978
3023,1.1055
3024,0.82155
3025,0.47632
3026,0.58255
3027,0.64855
3028,0.76782
3029,0.69785
3030,0.76327
3031,1.182
3032,0.88027
3033,0.83714
3034,1.0892
3035,0.43051
3036,0.33501
3037,0.41522
3038,0.37226
3039,0.38289
3040,0.25422
3041,0.43558
3042,0.49815
3043,0.59313
3044,0.51636
3045,0.65195
3046,0.61131
3047,0.57253
3048,0.6041
3049,0.60628
3050,0.7133
3051,0.64925
3052,0.72699
3053,0.73036
3054,0.66134
3055,0.67552
3056,0.63146
3057,0.72951
3058,0.66287
3059,0.67585
3060,0.64442
3061,1.2751
3062,1.6042
3063,1.2205
3064,1.5392
3065,1.7864
3066,1.2077
3067,1.0871
3068,1.1066
3069,1.2708
3070,0.65444
3071,0.6392
3072,0.6215
3073,0.82791
3074,0.58448
3075,0.66121
3076,0.60844
3077,0.56249
3078,0.66157
3079,0.81091
3080,0.77046
3081,0.78984
3082,0.70356
3083,0.90548
3084,0.79943
3085,0.92296
3086,0.94477
3087,0.76765
3088,0.68473
3089,0.61181
3090,0.52048
3091,1.3974
3092,1.2797
3093,0.59735
3094,1.6291
3095,0.65401
3096,0.84614
3097,0.63651
3098,0.59202
3099,0.58124
3100,0.74952
3101,0.81499
3102,0.67388
3103,0.74628
3104,0.72205
3105,0.80124
3106,0.7339
3107,0.9388
3108,0.79722
3109,0.82389
3110,0.91017
3111,0.81393
3112,0.65695
3113,1.1449
3114,1.4848
3115,1.1681
3116,1.1818
3117,0.96402
3118,0.88739
3119,0.92833
3120,0.50743
3121,0.6675
3122,0.73851
3123,0.42038
3124,0.67958
3125,0.7012
3126,0.65085
3127,0.83921
3128,0.77506
3129,0.19166
3130,1.0164
3131,0.69469
3132,0.77545
3133,0.38817
3134,0.52352
3135,0.26905
3136,0.29998
3137,0.37433
3138,0.35137
3139,0.45845
3140,0.56873
3141,0.72929
3142,0.56328
3143,0.49922
3144,0.80084
3145,0.95254
3146,0.24896
3147,0.37747
3148,0.37236
3149,0.4209
3150,0.42126
3151,0.35479
3152,1.4991
3153,1.1103
3154,1.1771
3155,0.90969
3156,0.9726
3157,0.78916
3158,0.95867
3159,0.90294
3160,0.92946
3161,0.97666
3162,0.65039
3163,0.90694
3164,0.82766
3165,1.5295
3166,1.767
3167,1.9891
3168,1.3117
3169,0.85182
3170,1.0527
3171,0.91769
3172,0.93636
3173,0.75595
3174,0.9456
3175,0.94551
3176,0.76981
3177,0.7445
3178,0.55029
3179,0.4517
3180,0.50994
3181,0.41304
3182,0.69867
3183,0.58634
3184,0.58371
3185,0.61803
3186,0.69049
3187,0.63567
3188,0.64366
3189,0.6775
3190,0.59727
3191,0.69728
3192,1.1141
3193,0.61892
3194,0.36704
3195,0.52501
3196,0.42105
3197,0.60515
3198,0.60439
3199,0.19904
3200,0.14657
3201,0.26294
3202,0.41187
3203,0.27688
3204,0.46627
3205,0.58246
3206,0.61408
3207,0.11072
3208,0.32636
3209,0.33416
3210,1.0265
3211,0.71967
3212,0.53419
3213,0.63175
3214,0.60262
3215,0.59684
3216,1.621
3217,1.2727
3218,0.97282
3219,0.9972
3220,1.5035
3221,1.2503
3222,1.0791
3223,2.6584
3224,1.6955
3225,1.2091
3226,0.9117
3227,3.2726
3228,2.2401
3229,1.9329
3230,2.1779
3231,2.6754
3232,3.6277
3233,3.6782
3234,2.7696
3235,4.1173
3236,3.8386
3237,2.5323
3238,3.064
3239,1.4847
3240,1.2221
3241,1.2428
3242,1.7413
3243,4.0639
3244,2.7973
3245,2.8593
3246,1.325
3247,0.65178
3248,0.63309
3249,0.84206
3250,0.77961
3251,0.87365
3252,1.0579
3253,1.0709
3254,0.89926
3255,0.88124
3256,0.86036
3257,0.5936
3258,0.56402
3259,0.71693
3260,0.6722
3261,0.58657
3262,0.94321
3263,0.70712
3264,0.91346
3265,0.80515
3266,0.62669
3267,0.65463
3268,0.61744
3269,0.9064
3270,0.90958
3271,0.71134
3272,0.49614
3273,0.50279
3274,1.0416
3275,1.0864
3276,1.1137
3277,0.48263
3278,0.60563
3279,1.4476
3280,0.7264
3281,1.2143
3282,0.99814
3283,0.92707
3284,0.97971
3285,0.98794
3286,1.4761
3287,1.8728
3288,1.4557
3289,1.1372
3290,1.7104
3291,1.2697
3292,1.2905
3293,1.448
3294,2.2506
3295,0.30982
3296,0.22098
3297,0.49707
3298,0.85838
3299,0.82267
3300,1.4421
3301,0.40724
3302,0.84908
3303,0.85384
3304,0.77323
3305,1.035
3306,1.0899
3307,1.0219
3308,0.94366
3309,0.66024
3310,0.68114
3311,0.68253
3312,0.77574
3313,0.71054
3314,0.7672
3315,0.61582
3316,0.64547
3317,0.73327
3318,0.70731
3319,0.73486
3320,0.72483
3321,0.93655
3322,1.0381
3323,0.92772
3324,0.7366
3325,0.70981
3326,0.88864
3327,0.73607
3328,0.79587
3329,0.67284
3330,0.69986
3331,0.85075
3332,0.97427
3333,1.0172
3334,0.96765
3335,0.88658
3336,0.57621
3337,0.54226
3338,0.72362
3339,0.62788
3340,0.71003
3341,0.77947
3342,0.73617
3343,0.80117
3344,0.72231
3345,0.6375
3346,0.47171
3347,0.5926
3348,0.55416
3349,0.64506
3350,0.49614
3351,0.56794
3352,0.49248
3353,0.56164
3354,0.52304
3355,0.63626
3356,1.8125
3357,0.63997
3358,1.1603
3359,0.28276
3360,0.58199
3361,0.55453
3362,0.43349
3363,2.2957
3364,0.87492
3365,1.4219
3366,1.0151
3367,1.1774
3368,1.1439
3369,0.72879
3370,0.76894
3371,0.65521
3372,0.7344
3373,0.72077
3374,0.81771
3375,0.91825
3376,0.94624
3377,1.115
3378,1.0852
3379,0.91775
3380,0.93293
3381,0.64779
3382,1.1055
3383,0.71882
3384,0.84893
3385,0.69051
3386,0.74195
3387,0.72688
3388,2.211
3389,0.82
3390,0.90184
3391,0.93391
3392,0.75238
3393,0.31012
3394,0.59837
3395,0.83074
3396,0.79231
3397,0.64925
3398,1.0135
3399,0.98051
3400,1.1502
3401,0.63982
3402,0.74044
3403,0.94925
3404,0.68397
3405,0.80297
1,0.34141
2,0.64087
3,0.34943
4,0.28858
5,1.153
6,2.0854
7,3.1185
8,3.9702
9,7.1223
10,7.4218
11,4.5071
12,3.2251
13,2.9257
14,1.1067
15,1.0378
16,0.89475
17,0.36539
18,0.40764
19,1.4429
20,3.4832
21,7.2608
22,7.5612
23,3.6766
24,1.3767
25,0.11721
26,0.17627
27,0.71835
28,1.4734
29,1.8147
30,3.3162
31,2.5007
32,1.6246
33,0.7963
34,0.85915
35,0.93556
36,1.2159
37,1.6456
38,0.64256
39,0.15462
40,0.14745
41,0.30469
42,0.27012
43,0.26783
44,0.36869
45,0.66576
46,0.64593
47,0.72014
48,0.24975
49,0.48744
50,0.22159
51,0.1833
52,0.74957
53,1.0313
54,0.32023
55,0.16236
56,0.38405
57,1.2482
58,0.46926
59,0.31954
60,2.0247
61,4.0095
62,5.5771
63,4.0462
64,1.6586
65,0.48643
66,0.4148
67,0.48521
68,0.37217
69,0.61328
70,0.65896
71,0.81918
72,0.8595
73,1.1246
74,1.0308
75,0.55316
76,1.3327
77,1.4745
78,2.6388
79,1.1391
80,0.78244
81,0.56476
82,0.55193
83,0.96739
84,1.3242
85,2.3411
86,3.718
87,7.3356
88,4.6116
89,5.9589
90,2.3983
91,1.2323
92,0.86405
93,1.58E-02
94,1.46E-02
95,1.92E-02
96,9.87E-03
97,8.21E-03
98,2.25E-02
99,3.86E-02
100,2.17E-02
101,1.44E-02
102,3.06E-02
103,1.92E-02
104,2.68E-02
105,1.69E-02
106,2.93E-02
107,2.55E-02
108,1.96E-02
109,2.79E-02
110,0.27251
111,0.41325
112,0.24086
113,0.15652
114,0.35056
115,0.33916
116,0.10642
117,0.14273
118,2.1708
119,2.9672
120,3.8402
121,1.7725
122,1.1247
123,1.5461
124,1.3314
125,1.6865
126,2.3402
127,1.4948
128,1.1416
129,1.4831
130,0.43061
131,1.0291
132,0.90673
133,0.8019
134,1.4011
135,0.9341
136,0.6973
137,0.34742
138,0.37324
139,1.3086
140,0.92098
141,1.6948
142,3.5159
143,2.2307
144,1.32
145,0.6043
146,2.32E-02
147,6.94E-02
148,2.44E-02
149,3.19E-02
150,3.53E-02
151,5.02E-02
152,3.48E-02
153,0.10087
154,0.96029
155,0.9591
156,0.70938
157,1.2128
158,1.2274
159,0.77943
160,0.793
161,1.0201
162,0.50887
163,0.89854
164,2.529
165,0.8865
166,0.72757
167,0.76727
168,0.60162
169,0.98014
170,0.63765
171,0.69024
172,0.5127
173,0.95952
174,1.0408
175,2.3411
176,1.6334
177,0.86607
178,0.90591
179,5.605
180,0.60404
181,0.98093
182,0.92205
183,1.4307
184,0.34114
185,0.6936
186,2.7105
187,2.2903
188,0.76512
189,1.9423
190,2.4093
191,1.4213
192,3.753
193,4.1835
194,0.54301
195,0.38199
196,2.3387
197,0.84444
198,0.77774
199,0.88791
200,0.74454
201,1.3704
202,1.101
203,0.26446
204,1.2676
205,0.61109
206,0.9015
207,1.0113
208,0.41971
209,1.262
210,2.3153
211,3.0837
212,0.33379
213,0.42159
214,0.29688
215,0.32296
216,0.68862
217,0.2849
218,0.43693
219,0.47834
220,0.5558
221,0.77487
222,0.45519
223,0.97644
224,1.3189
225,0.86204
226,1.1613
227,0.61454
228,0.85742
229,0.33691
230,0.19758
231,0.27448
232,0.17459
233,0.36366
234,0.15388
235,1.0017
236,1.6332
237,0.87484
238,1.0306
239,1.6511
240,2.1187
241,2.4844
242,1.6647
243,1.4623
244,1.5206
245,2.7388
246,3.0029
247,3.4124
248,2.6642
249,2.0421
250,2.67
251,2.7404
252,5.4382
253,4.8442
254,3.8477
255,3.7111
256,3.0782
257,3.7253
258,7.2231
259,5.829
260,6.4902
261,4.4999
262,6.2588
263,5.1313
264,5.9195
265,7.304
266,5.9685
267,6.3235
268,5.6089
269,3.8585
270,5.7683
271,4.0603
272,5.8956
273,4.7338
274,4.0877
275,2.9848
276,5.1385
277,2.7269
278,3.4114
279,2.375
280,3.4452
281,2.6678
282,2.5303
283,2.1377
284,2.2201
285,2.2516
286,1.1361
287,1.3974
288,1.0663
289,0.95902
290,0.91934
291,1.0987
292,0.97847
293,1.0553
294,1.2584
295,1.1483
296,0.96327
297,0.93118
298,0.57331
299,0.7158
300,1.1985
301,0.61615
302,0.83059
303,0.64357
304,0.31887
305,0.85053
306,1.0022
307,0.7794
308,0.91464
309,0.60247
310,0.64294
311,0.58937
312,0.3932
313,2.3128
314,1.6711
315,1.1934
316,1.1886
317,1.7055
318,5.2097
319,2.528
320,3.5789
321,2.8511
322,4.4151
323,7.2828
324,5.5166
325,6.3393
326,6.3975
327,5.5362
328,6.4125
329,5.5949
330,4.5666
331,6.5229
332,4.7609
333,5.8177
334,2.3939
335,3.7751
336,2.5203
337,2.6051
338,2.1399
339,2.4535
340,1.487
341,1.0312
342,1.0489
343,0.40014
344,0.11669
345,0.2178
346,0.22615
347,0.44524
348,0.53859
349,0.21931
350,0.39494
351,0.19534
352,0.31958
353,0.28457
354,0.29532
355,0.22365
356,0.42675
357,0.59619
358,0.89977
359,0.51942
360,0.62988
361,0.51149
362,1.1183
363,1.3949
364,1.577
365,1.0552
366,0.98641
367,1.0951
368,1.4536
369,1.7415
370,1.9558
371,1.3588
372,1.3573
373,1.2553
374,2.8
375,2.8882
376,2.7786
377,2.3274
378,2.0061
379,2.235
380,1.9797
381,1.906
382,2.4259
383,1.6029
384,1.4044
385,1.8605
386,1.7881
387,1.1196
388,1.433
389,1.5148
390,0.96208
391,1.0365
392,0.76183
393,0.49638
394,0.60834
395,0.93728
396,0.57842
397,0.64647
398,0.84125
399,0.66429
400,0.89502
401,0.66688
402,0.68064
403,0.57773
404,0.66991
405,0.95407
406,1.2036
407,0.85876
408,0.75925
409,0.74095
410,1.1263
411,1.3328
412,1.1673
413,1.0548
414,0.92103
415,0.99299
416,1.2425
417,1.388
418,1.5455
419,1.3277
420,1.1623
421,0.40407
422,0.65629
423,0.97663
424,0.52676
425,0.59338
426,0.46512
427,0.12119
428,0.14858
429,0.24384
430,0.20128
431,0.26233
432,0.35585
433,0.52033
434,0.22561
435,0.45858
436,0.22473
437,0.45266
438,0.2361
439,0.30919
440,0.39167
441,0.54234
442,0.27189
443,0.28992
444,0.28307
445,0.56764
446,0.31089
447,0.3691
448,0.50726
449,0.24245
450,0.29879
451,0.34893
452,0.29713
453,0.64598
454,0.42742
455,0.59579
456,0.64394
457,0.4021
458,0.38851
459,0.32408
460,0.61326
461,0.66238
462,0.61364
463,0.62375
464,0.63896
465,0.61076
466,0.35177
467,0.66794
468,0.65607
469,0.68781
470,0.33665
471,0.32931
472,0.23247
473,0.22254
474,0.39194
475,0.45374
476,0.34555
477,0.24272
478,0.62177
479,0.52445
480,0.71643
481,0.47182
482,0.36493
483,0.44668
484,0.70368
485,0.30037
486,0.81687
487,0.26234
488,0.16877
489,0.15339
490,0.1482
491,0.11102
492,0.2738
493,0.35389
494,0.28949
495,0.19189
496,0.16157
497,0.26339
498,0.1339
499,0.13523
500,9.26E-02
501,0.63475
502,0.45238
503,0.36668
504,0.39412
505,0.55739
506,0.44652
507,0.23436
508,0.50996
509,0.93412
510,2.5337
511,0.47535
512,0.45425
513,0.3883
514,0.34972
515,0.86647
516,1.4653
517,1.2585
518,0.59275
519,1.4359
520,1.7625
521,1.1092
522,0.71745
523,2.371
524,0.51915
525,0.52196
526,0.64017
527,0.65779
528,0.52734
529,0.54527
530,0.24891
531,1.6552
532,1.5715
533,2.4213
534,1.5985
535,1.1268
536,0.4651
537,1.6604
538,0.26493
539,0.19681
540,0.15726
541,0.15359
542,0.46988
543,0.41674
544,0.31528
545,0.3397
546,0.20758
547,0.80322
548,0.1193
549,0.12147
550,9.37E-02
551,9.09E-02
552,8.28E-02
553,0.22446
554,0.37182
555,0.32042
556,0.5852
557,0.18267
558,0.40514
559,0.26578
560,0.25423
561,0.20155
562,0.21594
563,0.75003
564,0.49238
565,1.2924
566,0.5501
567,0.66683
568,1.0945
569,0.43558
570,0.76806
571,0.75955
572,0.63709
573,1.8396
574,2.5572
575,0.48745
576,1.7611
577,2.1269
578,0.23782
579,0.33597
580,0.38805
581,0.23981
582,0.24377
583,0.21908
584,0.66943
585,1.2988
586,0.8428
587,0.54015
588,0.51036
589,0.62576
590,0.87004
591,2.8998
592,1.4608
593,1.4946
594,2.0118
595,1.674
596,2.1226
597,4.6184
598,3.1409
599,4.5973
600,2.6599
601,3.2872
602,3.2016
603,3.8233
604,4.6794
605,5.4377
606,4.056
607,3.7243
608,4.8496
609,2.734
610,2.6911
611,3.1223
612,2.6163
613,1.1178
614,1.1122
615,1.1217
616,1.911
617,1.1192
618,1.4983
619,0.43654
620,0.35212
621,0.66912
622,0.54882
623,0.43534
624,0.42303
625,0.4267
626,0.47819
627,0.66297
628,0.63961
629,0.50308
630,0.53312
631,0.33589
632,0.32719
633,0.57636
634,0.44428
635,0.29297
636,0.33655
637,0.35659
638,0.34993
639,0.61262
640,0.60645
641,0.42858
642,0.59955
643,0.62005
644,0.66707
645,0.596
646,0.61769
647,1.1442
648,0.60242
649,0.92102
650,0.87137
651,0.74988
652,0.68599
653,0.53306
654,0.99605
655,0.93951
656,0.88105
657,0.89081
658,0.88897
659,0.76943
660,0.72158
661,1.2904
662,0.98799
663,0.96297
664,1.0349
665,0.85263
666,0.92867
667,0.74523
668,0.89867
669,0.79879
670,0.69032
671,0.73923
672,0.77039
673,0.5834
674,0.4492
675,0.4418
676,0.45167
677,0.36791
678,0.45948
679,1.3729
680,0.61016
681,0.84905
682,0.6948
683,2.0433
684,1.2189
685,0.72266
686,0.8311
687,0.90011
688,1.2041
689,0.74636
690,0.39231
691,0.89913
692,1.8972
693,1.7382
694,1.6649
695,1.7232
696,1.7682
697,1.4779
698,1.6908
699,1.2486
700,1.0333
701,1.0639
702,1.1763
703,0.99135
704,1.2105
705,0.91556
706,1.0673
707,1.2214
708,0.83752
709,0.73396
710,0.99911
711,0.87016
712,0.75069
713,0.87797
714,0.92965
715,0.62562
716,0.45084
717,0.65967
718,0.56985
719,0.75837
720,0.6473
721,0.44505
722,1.0272
723,0.45611
724,0.91222
725,0.65165
726,0.68442
727,0.69675
728,0.65383
729,0.48354
730,1.0311
731,1.1032
732,0.93407
733,0.93942
734,0.93891
735,0.89539
736,0.89557
737,1.507
738,1.1124
739,1.4534
740,0.98789
741,0.83733
742,1.0817
743,1.2626
744,1.2393
745,2.9891
746,1.9946
747,1.2232
748,1.8787
749,2.2791
750,1.7439
751,1.7276
752,5.5038
753,1.8502
754,1.5372
755,3.5623
756,2.8632
757,2.4349
758,3.0068
759,5.8822
760,3.3474
761,5.4242
762,4.8121
763,5.2792
764,2.3199
765,2.0605
766,4.9674
767,3.8818
768,4.2345
769,2.0119
770,3.4062
771,3.8354
772,4.5926
773,2.9505
774,3.9067
775,4.5087
776,4.5117
777,3.1088
778,2.9453
779,2.2846
780,2.4458
781,1.8854
782,2.0213
783,2.3682
784,2.062
785,1.7236
786,1.2444
787,1.7951
788,1.0562
789,1.1164
790,1.3219
791,1.4582
792,1.0708
793,0.7304
794,0.82002
795,0.79111
796,0.88819
797,1.0781
798,1.19E-02
799,2.59E-02
800,1.81E-02
801,1.65E-02
802,1.89E-02
803,9.54E-03
804,1.37E-02
805,9.64E-03
806,1.51E-02
807,1.49E-02
808,1.97E-02
809,2.61E-02
810,1.15E-02
811,2.24E-02
812,1.52E-02
813,2.14E-02
814,1.27E-02
815,1.92E-02
816,2.12E-02
817,6.09E-03
818,1.50E-02
819,1.81E-02
820,1.54E-02
821,9.90E-03
822,1.35E-02
823,9.33E-03
824,8.52E-03
825,1.57E-02
826,5.01E-02
827,1.75E-02
828,1.20E-02
829,1.37E-02
830,2.35E-02
831,2.65E-02
832,4.66E-02
833,2.33E-02
834,1.90E-02
835,0.1656
836,5.04E-02
837,2.21E-02
838,2.17E-02
839,1.45E-02
840,2.12E-02
841,8.69E-03
842,1.20E-02
843,1.44E-02
844,1.71E-02
845,8.26E-03
846,3.50E-02
847,4.88E-02
848,2.16E-02
849,2.38E-02
850,4.29E-02
851,1.46E-02
852,2.14E-02
853,1.83E-02
854,5.41E-03
855,1.31E-02
856,1.97E-02
857,2.48E-02
858,9.89E-03
859,1.08E-02
860,5.01E-02
861,2.91E-02
862,7.17E-03
863,5.19E-02
864,6.27E-03
865,9.49E-03
866,1.28E-02
867,1.93E-02
868,6.98E-02
869,1.89E-02
870,1.14E-02
871,1.62E-02
872,0.2812
873,0.28941
874,0.17918
875,0.13411
876,0.14182
877,0.12939
878,0.447
879,0.3681
880,0.34179
881,0.20317
882,0.19572
883,0.19981
884,0.25168
885,0.1405
886,0.25388
887,0.16235
888,0.12366
889,0.12149
890,0.32985
891,0.13891
892,0.47458
893,0.13294
894,0.10912
895,0.1378
896,7.91E-02
897,8.09E-02
898,0.18922
899,0.4998
900,0.17888
901,0.17011
902,0.16466
903,0.33364
904,0.1593
905,0.16384
906,0.17881
907,0.24058
908,0.33983
909,5.56E-02
910,5.30E-02
911,5.07E-02
912,5.36E-02
913,0.1216
914,6.12E-02
915,7.86E-02
916,6.54E-02
917,0.47897
918,1.7103
919,1.493
920,2.5573
921,1.9531
922,3.665
923,2.9749
924,3.0414
925,1.6814
926,1.4622
927,1.2763
928,1.4393
929,1.0141
930,0.90325
931,0.99739
932,0.98068
933,1.3845
934,1.1658
935,0.98924
936,0.93035
937,1.3035
938,1.0853
939,1.2842
940,1.1984
941,1.7677
942,1.4518
943,1.6719
944,1.1344
945,1.0485
946,1.1302
947,1.0182
948,0.86752
949,0.90624
950,1.24
951,1.066
952,0.64395
953,0.44555
954,0.36303
955,0.98482
956,0.85142
957,0.79965
958,0.92091
959,0.76372
960,0.78679
961,0.74495
962,0.83446
963,0.87413
964,0.70183
965,0.70766
966,0.69396
967,0.57539
968,0.7736
969,0.6806
970,1.2131
971,1.0507
972,1.3362
973,1.1899
974,1.0675
975,0.80714
976,0.96894
977,0.94275
978,0.7344
979,0.62931
980,0.81111
981,0.7011
982,0.56073
983,0.63573
984,0.33969
985,0.55482
986,0.58618
987,0.38851
988,1.024
989,1.1562
990,1.0688
991,1.0761
992,1.0374
993,1.0967
994,0.86404
995,0.80118
996,0.91124
997,0.86949
998,1.0194
999,0.9642
1000,1.5377
1001,1.4299
1002,1.4474
1003,1.8364
1004,3.0098
1005,2.8713
1006,2.5788
1007,2.9116
1008,3.5717
1009,2.3027
1010,1.6033
1011,1.82
1012,2.3032
1013,1.0694
1014,1.098
1015,1.1075
1016,1.3288
1017,0.65866
1018,0.75088
1019,0.9806
1020,3.03E-02
1021,2.59E-02
1022,5.16E-02
1023,3.49E-02
1024,8.04E-02
1025,2.85E-02
1026,3.84E-02
1027,2.57E-02
1028,3.70E-02
1029,3.51E-02
1030,5.05E-02
1031,0.94402
1032,0.84051
1033,0.92284
1034,0.75793
1035,0.71176
1036,0.73556
1037,0.96126
1038,0.64788
1039,0.77203
1040,0.58683
1041,0.62705
1042,0.58497
1043,0.52771
1044,0.44827
1045,1.1112
1046,0.73952
1047,1.7541
1048,0.42805
1049,1.0168
1050,0.94384
1051,0.50003
1052,1.0481
1053,0.66963
1054,0.959
1055,1.8455
1056,1.0153
1057,1.0958
1058,1.289
1059,1.1097
1060,0.79023
1061,0.73261
1062,0.83173
1063,1.0618
1064,0.88439
1065,0.76584
1066,0.82146
1067,0.71289
1068,0.77194
1069,0.91149
1070,0.9468
1071,0.48126
1072,0.66959
1073,0.74543
1074,1.3518
1075,0.69838
1076,1.045
1077,0.53278
1078,1.5811
1079,1.6634
1080,1.7025
1081,1.9216
1082,2.1302
1083,0.77671
1084,1.1555
1085,1.0374
1086,0.45823
1087,0.42179
1088,0.74166
1089,0.87248
1090,0.76817
1091,0.66018
1092,0.46222
1093,0.65217
1094,0.79927
1095,1.1912
1096,0.85107
1097,0.94889
1098,0.65043
1099,0.70205
1100,0.61461
1101,0.62902
1102,0.72328
1103,0.63622
1104,0.46448
1105,0.55102
1106,0.89215
1107,0.49503
1108,0.73092
1109,0.98048
1110,1.12
1111,1.6647
1112,1.1846
1113,1.7035
1114,3.897
1115,2.3479
1116,2.9917
1117,1.1808
1118,1.8691
1119,2.8368
1120,1.9349
1121,1.3926
1122,1.3069
1123,0.78798
1124,0.76272
1125,1.0383
1126,0.98097
1127,0.86976
1128,0.62621
1129,4.1162
1130,4.5736
1131,4.8182
1132,0.6183
1133,0.42549
1134,0.46901
1135,0.68545
1136,0.59428
1137,0.38323
1138,1.1442
1139,0.78948
1140,0.80074
1141,0.85658
1142,0.98472
1143,0.63635
1144,1.3195
1145,0.87285
1146,0.86663
1147,0.97804
1148,1.0069
1149,0.96511
1150,0.64765
1151,1.9948
1152,1.4752
1153,1.8766
1154,0.34892
1155,0.36433
1156,0.34929
1157,0.41424
1158,0.67044
1159,1.037
1160,0.57745
1161,0.6726
1162,0.87747
1163,0.80116
1164,2.2125
1165,2.1782
1166,2.5058
1167,3.1865
1168,3.3762
1169,2.8334
1170,3.1083
1171,2.291
1172,1.7987
1173,1.6126
1174,1.7263
1175,1.0106
1176,0.90794
1177,0.85465
1178,0.54312
1179,1.893
1180,2.6068
1181,2.4742
1182,3.0395
1183,1.2047
1184,1.1816
1185,3.889
1186,3.2403
1187,3.1847
1188,2.9997
1189,3.5229
1190,0.35362
1191,0.76446
1192,0.27979
1193,0.32531
1194,0.27415
1195,0.45581
1196,1.613
1197,1.7244
1198,0.98144
1199,0.96169
1200,0.5998
1201,0.69116
1202,0.85573
1203,0.52706
1204,1.3103
1205,0.64079
1206,0.51086
1207,1.1636
1208,0.39812
1209,0.97343
1210,2.6049
