Node Number,Equivalent (von-Mises) Stress (MPa)
3852,11.442
3853,27.244
3854,48.061
3855,5.0495
3856,6.455
3857,4.259
3858,2.8098
3859,1.2338
3860,1.8177
3861,2.5771
3862,0.64214
3863,1.1883
3864,0.67263
3865,19.186
3866,18.183
3867,7.9243
3868,2.7487
3869,3.40E-02
3870,4.70E-02
3871,2.40E-02
3872,5.21E-02
3873,7.63E-02
3874,4.37E-02
3875,0.14711
3876,4.41E-02
3877,2.57E-02
3878,1.27E-02
3879,1.32E-02
3880,5.46E-02
3881,3.90E-02
3882,9.98E-03
3883,0.21604
3884,0.33836
3885,0.18979
3886,0.30197
3887,0.24648
3888,7.70E-02
3889,0.16932
3890,0.21239
3891,0.41372
3892,0.36256
3893,0.27063
3894,9.93E-02
3895,2.24E-02
3896,2.2921
3897,9.73E-02
3898,2.73E-02
3899,1.42E-02
3900,0.23098
3901,6.11E-02
3902,2.45E-02
3903,0.17041
3904,3.34E-02
3905,1.7318
3906,2.05E-02
3907,9.28E-02
3908,9.93E-03
3909,8.32E-02
3910,6.25E-02
3911,0.35643
3912,7.98E-02
3913,2.18E-02
3914,1.42E-02
3915,3.14E-02
3916,0.66366
3917,0.68442
3918,0.1789
3919,7.99E-03
3920,0.64462
3921,3.57E-02
3922,3.07E-02
3923,1.7202
3924,0.17747
3925,4.18E-02
3926,4.23E-02
3927,6.71E-02
3928,1.55E-02
3929,0.12875
3930,0.28591
3931,2.27E-02
3932,0.10166
3933,9.02E-02
3934,6.44E-02
3935,2.3037
3936,0.52194
3937,0.4231
3938,0.57999
3939,1.31E-02
3940,1.43E-02
3941,3.27E-02
3942,0.20654
3943,5.93E-02
3944,0.46096
3945,3.16E-02
3946,3.63E-02
3947,0.33332
3948,2.35E-02
3949,2.44E-02
3950,1.90E-02
3951,0.81908
3952,0.80741
3953,0.21216
3954,2.88E-02
3955,0.21265
3956,0.83567
3957,2.90E-02
3958,2.12E-02
3959,0.21571
3960,0.29691
3961,9.49E-03
3962,6.07E-03
3963,1.39E-02
3964,7.74E-03
3965,4.00E-03
3966,0.58362
3967,6.08E-02
3968,7.26E-02
3969,5.06E-02
3970,3.84E-02
3971,8.81E-03
3972,1.51E-02
3973,7.25E-02
3974,8.50E-03
3975,6.34E-03
3976,1.33E-02
3977,0.14887
3978,4.35E-02
3979,7.14E-02
3980,3.68E-02
3981,4.91E-02
3982,0.92744
3983,0.86621
3984,3.95E-02
3985,2.41E-02
3986,0.34043
3987,0.65295
3988,0.14787
3989,5.92E-02
3990,2.48E-02
3991,9.34E-02
3992,0.13201
3993,0.32922
3994,0.1972
3995,8.61E-02
3996,8.01E-02
3997,0.46758
3998,0.25021
3999,0.92261
4000,0.58169
4001,2.87E-02
4002,3.53E-02
4003,0.16385
4004,8.78E-02
4005,9.21E-02
4006,0.16202
4007,7.77E-02
4008,0.10665
4009,0.11864
4010,9.84E-02
4011,0.14867
4012,0.13385
4013,7.77E-02
4014,2.70E-02
4015,8.44E-02
4016,9.34E-02
4017,0.10901
4018,5.21E-02
4019,9.73E-02
4020,0.80827
4021,2.91E-02
4022,0.38769
4023,0.13506
4024,0.88702
4025,0.66793
4026,5.55E-02
4027,8.57E-02
4028,0.94414
4029,4.79E-02
4030,4.22E-02
4031,6.40E-02
4032,0.11813
4033,9.38E-02
4034,0.98993
4035,0.62792
4036,0.30443
4037,4.76E-02
4038,3.97E-02
4039,8.89E-02
4040,2.87E-02
4041,4.54E-02
4042,4.99E-02
4043,0.11582
4044,0.38877
4045,0.89606
4046,9.31E-02
4047,0.17559
4048,0.60394
4049,0.85305
4050,9.66E-02
4051,0.39972
4052,0.22035
4053,0.96909
4054,1.0609
4055,0.17179
4056,0.19103
4057,0.74623
4058,0.39072
4059,0.12556
4060,8.34E-02
4061,1.0252
4062,0.18311
4063,0.8609
4064,0.46873
4065,0.12389
4066,0.18156
4067,1.1986
4068,1.0479
4069,0.24415
4070,0.13035
4071,0.76409
4072,1.0451
4073,1.1535
4074,1.3092
4075,0.98906
4076,0.27664
4077,0.56822
4078,0.16536
4079,0.26609
4080,0.21181
4081,0.32903
4082,1.3193
4083,0.18791
4084,0.56357
4085,1.0232
4086,1.4929
4087,1.1759
4088,1.0182
4089,0.46543
4090,0.69291
4091,0.22436
4092,0.1219
4093,5.24E-02
4094,0.18612
4095,0.17379
4096,1.3953
4097,1.5062
4098,0.31337
4099,0.24406
4100,0.40346
4101,0.39578
4102,1.629
4103,1.3396
4104,0.97507
4105,0.34595
4106,0.82828
4107,9.17E-02
4108,0.28909
4109,0.26913
4110,0.38946
4111,0.47977
4112,1.5473
4113,0.50009
4114,1.8235
4115,1.5331
4116,0.89387
4117,0.23137
4118,0.98961
4119,0.32155
4120,0.60518
4121,0.2316
4122,0.35629
4123,1.5943
4124,2.0385
4125,0.63833
4126,0.77763
4127,0.10944
4128,1.8249
4129,1.1408
4130,0.34147
4131,0.52959
4132,0.67085
4133,0.36129
4134,1.6812
4135,0.42983
4136,0.52498
4137,1.3524
4138,0.77773
4139,2.2953
4140,2.0895
4141,2.4064
4142,0.60914
4143,0.14353
4144,0.35932
4145,0.61807
4146,0.76958
4147,1.7422
4148,2.5094
4149,0.48242
4150,0.65138
4151,1.5552
4152,0.86978
4153,0.34798
4154,2.3555
4155,2.5879
4156,2.7214
4157,0.46498
4158,0.26051
4159,1.6297
4160,0.58773
4161,0.87151
4162,1.7537
4163,0.59535
4164,0.7922
4165,0.27844
4166,0.9347
4167,2.683
4168,2.5179
4169,2.8368
4170,1.4881
4171,0.27573
4172,0.87394
4173,0.369
4174,1.9916
4175,0.64573
4176,0.19372
4177,0.94181
4178,0.91673
4179,1.4388
4180,0.18974
4181,0.79326
4182,0.91609
4183,2.4239
4184,2.8153
4185,2.7576
4186,0.46397
4187,2.0971
4188,9.18E-02
4189,1.0805
4190,0.69631
4191,0.9446
4192,0.69166
4193,0.91125
4194,0.86662
4195,0.11288
4196,0.51212
4197,0.6858
4198,2.5415
4199,3.0023
4200,2.9208
4201,1.3532
4202,7.37E-02
4203,0.54358
4204,2.2627
4205,1.2221
4206,0.74162
4207,3.0635
4208,2.5785
4209,1.3824
4210,9.25E-02
4211,0.2778
4212,0.84829
4213,0.42035
4214,0.72903
4215,2.4194
4216,0.68116
4217,1.4143
4218,0.80332
4219,3.1718
4220,2.8423
4221,2.7103
4222,0.76219
4223,0.52098
4224,0.21866
4225,0.5828
4226,1.5095
4227,0.14064
4228,0.80751
4229,1.6846
4230,0.87136
4231,0.63129
4232,0.86802
4233,0.11899
4234,0.35174
4235,0.14758
4236,0.97136
4237,1.7444
4238,0.91659
4239,3.3423
4240,2.1314
4241,3.1026
4242,1.0732
4243,0.15474
4244,0.85278
4245,0.42851
4246,1.2546
4247,0.43943
4248,9.74E-02
4249,1.857
4250,3.4413
4251,2.8121
4252,0.92154
4253,2.5654
4254,1.2377
4255,0.24497
4256,0.99548
4257,1.8669
4258,3.364
4259,2.8076
4260,0.1666
4261,1.61
4262,0.80559
4263,0.31307
4264,0.94155
4265,2.86
4266,0.37668
4267,1.7616
4268,1.4196
4269,1.2777
4270,3.4271
4271,2.8176
4272,0.15436
4273,1.966
4274,1.157
4275,0.62609
4276,3.1259
4277,0.96108
4278,0.54357
4279,1.6267
4280,1.396
4281,1.5982
4282,0.40822
4283,2.2988
4284,1.4809
4285,3.4169
4286,2.6254
4287,3.3764
4288,1.0486
4289,1.3872
4290,0.66668
4291,1.7747
4292,1.5407
4293,0.60999
4294,2.5902
4295,1.7847
4296,3.2836
4297,2.4806
4298,3.5094
4299,1.0157
4300,1.1686
4301,0.7811
4302,2.8419
4303,0.89478
4304,2.0691
4305,1.8423
4306,1.6519
4307,3.2626
4308,2.3474
4309,3.5688
4310,1.0619
4311,1.0514
4312,2.9442
4313,2.2188
4314,0.86239
4315,2.0146
4316,0.97512
4317,2.9343
4318,2.0889
4319,3.5246
4320,0.94713
4321,3.0436
4322,1.1873
4323,2.2638
4324,0.8046
4325,2.686
4326,1.853
4327,0.94279
4328,1.9233
4329,3.4304
4330,0.83167
4331,2.975
4332,1.1298
4333,2.1566
4334,0.68262
4335,2.5483
4336,1.6753
4337,3.3274
4338,0.85281
4339,1.7989
4340,1.5827
4341,0.75366
4342,0.60694
4343,2.2735
4344,1.5658
4345,2.6629
4346,1.0053
4347,2.9258
4348,1.6204
4349,0.61798
4350,0.76024
4351,1.0993
4352,0.47214
4353,0.922
4354,2.0065
4355,0.52423
4356,1.3011
4357,0.79892
4358,2.1753
4359,2.4936
4360,0.5599
4361,0.36239
4362,0.47046
4363,0.51543
4364,2.0788
4365,1.4892
4366,0.37888
4367,0.35431
4368,0.45674
4369,0.69887
4370,1.311
4371,1.9005
4372,1.6983
4373,1.1691
4374,0.51089
4375,0.81429
4376,0.25441
4377,0.25069
4378,0.18893
4379,0.27127
4380,0.27371
4381,1.3987
4382,0.32095
4383,1.2187
4384,1.0444
4385,1.1279
4386,0.93573
4387,0.96746
4388,0.1473
4389,0.17874
4390,0.24482
4391,0.68798
4392,0.69314
4393,0.90554
4394,0.57274
4395,0.21934
4396,0.14227
4397,0.67738
4398,0.69149
4399,1.0276
4400,0.61853
4401,0.54264
4402,1.7487
4403,3.8034
4404,1.3692
4405,1.2089
4406,0.60881
4407,0.67175
4408,1.7586
4409,0.42937
4410,4.6957
4411,1.9265
4412,0.17397
4413,0.26554
4414,0.27613
4415,0.15781
4416,0.29253
4417,0.35836
4418,0.57596
4419,0.25682
4420,0.28751
4421,0.30904
4422,0.41562
4423,1.0118
4424,0.33647
4425,9.7009
4426,1.2113
4427,0.27035
4428,0.83428
4429,0.6508
4430,1.2651
4431,1.2166
4432,4.87E-02
4433,0.35649
4434,23.363
4435,3.1703
4436,7.3213
4437,3.9133
4438,12.638
4439,5.8871
4440,1.0378
4441,11.647
4442,10.958
4443,3.33E-02
4444,5.45E-02
4445,5.26E-02
4446,0.11205
4447,0.13424
4448,1.82E-02
4449,8.28E-03
4450,4.82E-03
4451,6.25E-02
4452,8.90E-03
4453,7.26E-03
4454,1.09E-02
4455,1.63E-02
4456,6.64E-02
4457,0.10661
4458,8.63E-02
4459,9.09E-02
4460,0.15483
4461,0.154
4462,5.44E-02
4463,8.35E-02
4464,9.43E-02
4465,7.70E-02
4466,9.51E-02
4467,9.33E-02
4468,9.83E-02
4469,2.25E-02
4470,8.64E-02
4471,7.23E-02
4472,5.86E-02
4473,6.86E-02
4474,0.1512
4475,0.16864
4476,0.14783
4477,0.27683
4478,3.84E-02
4479,0.31407
4480,0.35069
4481,6.35E-02
4482,0.35978
4483,0.36002
4484,9.80E-02
4485,0.1742
4486,0.31933
4487,0.82178
4488,0.95192
4489,0.94791
4490,0.86134
4491,0.95333
4492,0.86085
4493,0.89039
4494,0.88301
4495,0.8677
4496,0.87049
4497,0.75762
4498,0.84281
4499,0.58276
4500,0.77525
4501,0.32963
4502,0.69907
4503,0.10594
4504,0.59433
4505,0.24474
4506,0.19041
4507,0.20163
4508,0.11522
4509,0.78548
4510,0.60136
4511,0.61429
4512,0.30641
4513,0.46983
4514,0.45333
4515,0.57137
4516,1.3812
4517,1.0172
4518,0.83766
4519,0.90438
4520,0.77137
4521,0.8615
4522,0.73715
4523,0.78803
4524,16.5
4525,21.244
4526,0.37925
4527,9.5879
4528,1.4964
4529,5.7169
4530,1.0408
4531,7.82E-02
4532,0.26984
4533,0.23242
4534,13.449
4535,0.21259
4536,0.45672
4537,4.21E-02
4538,10.187
4539,1.9884
4540,0.37636
4541,7.44E-02
4542,1.716
4543,0.13607
4544,0.25225
4545,0.14627
4546,0.3909
4547,0.54889
4548,0.71447
4549,0.78231
4550,0.81693
4551,0.68694
4552,1.03E-02
4553,7.70E-03
4554,4.1756
4555,0.36718
4556,0.20944
4557,0.37512
4558,0.28157
4559,1.1026
4560,0.73893
4561,1.2379
4562,1.3212
4563,0.64009
4564,1.8678
4565,1.0119
4566,1.6195
4567,1.533
4568,1.3622
4569,4.56E-02
4570,2.0236
4571,0.27067
4572,0.98995
4573,0.22448
4574,4.19E-02
4575,0.10845
4576,5.15E-02
4577,1.0063
4578,0.23281
4579,0.10128
4580,2.7474
4581,0.57308
4582,1.1612
4583,0.61572
4584,0.22194
4585,0.10545
4586,0.80136
4587,0.17344
4588,0.21372
4589,0.19091
4590,0.55895
4591,4.88E-02
4592,0.8828
4593,1.1119
4594,0.36096
4595,0.75454
4596,0.3357
4597,2.32E-02
4598,0.17234
4599,0.49734
4600,0.81206
4601,0.34338
4602,0.1149
4603,0.96156
4604,0.88529
4605,2.3983
4606,8.91E-02
4607,0.30906
4608,0.35672
4609,0.41685
4610,0.10893
4611,6.27E-02
4612,0.47023
4613,8.14E-02
4614,3.12E-02
4615,0.15194
4616,1.2991
4617,0.51051
4618,0.10854
4619,0.56941
4620,0.28374
4621,0.63271
4622,0.90484
4623,9.41E-02
4624,5.63E-02
4625,0.35399
4626,8.41E-02
4627,0.95595
4628,8.41E-02
4629,0.51763
4630,0.1144
4631,0.19359
4632,0.33894
4633,0.17229
4634,9.53E-02
4635,0.10086
4636,0.25935
4637,0.18206
4638,0.34939
4639,0.25169
4640,0.19436
4641,0.23497
4642,0.90765
4643,0.74385
4644,0.13997
4645,0.18507
4646,0.4258
4647,0.8127
4648,5.64E-02
4649,0.52093
4650,0.59372
4651,3.1933
4652,0.13008
4653,0.23618
4654,1.0456
4655,7.74E-02
4656,1.1645
4657,1.8381
4658,1.6664
4659,1.2582
4660,0.24194
4661,0.54191
4662,0.34224
4663,0.1632
4664,0.57005
4665,0.71598
4666,0.26492
4667,0.16043
4668,6.95E-02
4669,0.33153
4670,1.2198
4671,0.61478
4672,0.62402
4673,0.70919
4674,0.17455
4675,3.11E-02
4676,0.19117
4677,3.39E-02
4678,1.0198
4679,0.21125
4680,0.25827
4681,0.66488
4682,0.50666
4683,0.73833
4684,0.11795
4685,0.54635
4686,0.53997
4687,0.42952
4688,0.20682
4689,0.42096
4690,0.91206
4691,6.71E-02
4692,5.67E-02
4693,0.18243
4694,0.20473
4695,0.18468
4696,0.41822
4697,0.39213
4698,6.87E-02
4699,0.14752
4700,0.15125
4701,0.28589
4702,0.39734
4703,0.12135
4704,1.8963
4705,5.9023
4706,1.8043
4707,0.89687
4708,0.22472
4709,2.89E-02
4710,0.51547
4711,1.878
4712,1.2136
4713,1.7143
4714,17.286
4715,26.691
4716,8.1381
4717,6.9009
4718,7.3749
4719,6.6925
4720,36.875
4721,20.149
4722,16.921
4723,13.629
4724,13.498
4725,31.383
4726,22.604
4727,29.406
4728,23.703
4729,3.1482
4730,3.0004
4731,3.0049
4732,3.502
4733,3.3752
4734,2.4317
4735,3.568
4736,3.0646
4737,3.1579
4738,3.6598
4739,3.0911
4740,3.2587
4741,10.47
4742,5.7119
4743,1.8344
4744,3.8644
4745,0.92396
4746,2.6816
4747,1.5117
4748,1.3019
4749,1.9266
4750,5.0144
4751,1.4017
4752,5.0164
4753,1.2215
4754,0.62243
4755,0.65225
4756,0.8682
4757,0.73398
4758,0.61755
4759,3.1762
4760,2.4284
4761,1.0047
4762,0.54852
4763,0.71098
4764,1.2408
4765,1.8575
4766,2.5674
4767,1.3462
4768,0.84499
4769,1.5529
4770,1.6933
4771,7.0293
4772,3.3035
4773,1.5381
4774,1.1313
4775,3.4716
4776,0.70973
4777,0.5304
4778,1.1744
4779,0.51697
4780,0.79192
4781,0.64018
4782,1.0381
4783,0.37058
4784,0.57138
4785,0.46427
4786,0.57615
4787,0.79188
4788,0.89126
4789,0.89721
4790,0.71159
4791,0.80994
4792,0.6367
4793,0.72684
4794,0.44922
4795,0.43947
4796,0.84584
4797,0.39111
4798,0.19448
4799,0.65495
4800,0.38809
4801,11.808
4802,11.314
4803,14.17
4804,8.8495
4805,12.635
4806,13.875
4807,10.23
4808,10.721
4809,8.4596
4810,10.885
4811,11.113
4812,9.2898
4813,9.8424
4814,8.4938
4815,7.5487
4816,4.5156
4817,9.6994
4818,8.4507
4819,4.3646
4820,5.1534
4821,1.6975
4822,3.08
4823,1.9326
4824,5.2311
4825,1.1577
4826,1.9728
4827,2.61E-02
4828,5.01E-02
4829,7.04E-02
4830,3.44E-02
4831,2.26E-02
4832,2.11E-02
4833,2.80E-02
4834,6.23E-02
4835,3.96E-02
4836,3.47E-02
4837,4.95E-02
4838,3.89E-02
4839,4.94E-02
4840,7.79E-02
4841,7.28E-02
4842,3.70E-02
4843,4.35E-02
4844,3.30E-02
4845,1.75E-02
4846,2.80E-02
4847,6.49E-02
4848,4.62E-02
4849,6.21E-02
4850,0.10957
4851,8.05E-02
4852,7.46E-02
4853,5.17E-02
4854,9.05E-02
4855,0.19632
4856,6.21E-02
4857,9.82E-02
4858,9.34E-02
4859,0.4152
4860,7.57E-02
4861,5.90E-02
4862,6.99E-02
4863,6.10E-02
4864,0.2144
4865,1.1514
4866,5.62E-02
4867,0.43838
4868,0.10768
4869,0.1439
4870,9.24E-02
4871,0.31508
4872,9.59E-02
4873,2.59E-02
4874,2.37E-02
4875,5.52E-02
4876,4.32E-02
4877,3.16E-02
4878,3.51E-02
4879,3.95E-02
4880,1.91E-02
4881,3.15E-02
4882,2.04E-02
4883,2.03E-02
4884,2.82E-02
4885,3.74E-02
4886,1.17E-02
4887,9.96E-03
4888,2.98E-02
4889,9.89E-03
4890,1.43E-02
4891,2.26E-02
4892,3.19E-02
4893,4.67E-02
4894,0.13035
4895,0.19286
4896,0.12575
4897,3.69E-02
4898,5.30E-02
4899,5.42E-02
4900,0.12707
4901,2.94E-02
4902,2.56E-02
4903,3.53E-02
4904,4.53E-02
4905,5.31E-02
4906,7.11E-02
4907,0.12337
4908,3.91E-02
4909,1.20E-02
4910,1.09E-02
4911,1.64E-02
4912,9.65E-03
4913,2.91E-02
4914,3.30E-02
4915,0.22394
4916,0.18954
4917,0.2871
4918,0.26896
4919,0.1323
4920,0.16298
4921,0.14837
4922,0.18646
4923,0.28168
4924,0.30507
4925,1.0916
4926,0.73125
4927,0.20883
4928,0.29752
4929,0.1628
4930,0.16527
4931,0.19077
4932,0.13848
4933,0.1227
4934,0.21009
4935,0.13055
4936,0.48837
4937,0.25148
4938,0.21179
4939,0.26755
4940,0.73129
4941,0.29007
4942,0.2122
4943,0.31271
4944,0.19551
4945,0.22373
4946,0.31092
4947,0.23469
4948,0.17077
4949,0.23133
4950,0.29568
4951,0.12202
4952,9.99E-02
4953,7.92E-02
4954,0.18244
4955,0.13814
4956,0.13429
4957,0.46022
4958,0.12507
4959,0.24327
4960,0.15403
4961,0.14756
4962,0.22694
4963,0.28735
4964,0.38606
4965,0.33886
4966,0.53862
4967,0.51758
4968,0.43969
4969,0.3212
4970,0.38595
4971,0.43807
4972,0.29392
4973,0.4993
4974,0.50825
4975,0.26836
4976,0.35498
4977,0.40502
4978,0.17592
4979,0.44852
4980,0.21921
4981,0.3562
4982,0.35944
4983,0.24111
4984,0.20624
4985,9.08E-02
4986,0.12363
4987,6.83E-02
4988,6.71E-02
4989,0.17161
4990,0.12272
4991,2.32E-02
4992,1.57E-02
4993,2.04E-02
4994,3.72E-02
4995,1.1122
4996,1.5816
4997,1.0873
4998,1.611
4999,0.9396
5000,1.4739
5001,1.2834
5002,1.4222
5003,7.67E-02
5004,8.05E-02
5005,0.12094
5006,0.25931
5007,4.53E-02
5008,1.81E-02
5009,2.05E-02
5010,2.78E-02
5011,2.92E-02
5012,2.66E-02
5013,5.99E-02
5014,3.53E-02
5015,4.55E-02
5016,1.50E-02
5017,1.01E-02
5018,1.31E-02
5019,1.97E-02
5020,2.61E-02
5021,2.94E-02
5022,3.55E-02
5023,0.19502
5024,0.10751
5025,0.43979
5026,0.15116
5027,0.20543
5028,0.26279
5029,0.34342
5030,4.19E-02
5031,6.78E-02
5032,4.01E-02
5033,3.61E-02
5034,0.27906
5035,3.70E-02
5036,1.69E-02
5037,2.20E-02
5038,1.36E-02
5039,2.17E-02
5040,3.15E-02
5041,7.94E-02
5042,0.40068
5043,7.65E-02
5044,0.12552
5045,0.28307
5046,0.36178
5047,0.12325
5048,0.22357
5049,2.65E-02
5050,2.92E-02
5051,5.62E-02
5052,0.83321
5053,1.3676
5054,0.68615
5055,1.249
5056,1.304
5057,2.20E-02
5058,5.61E-02
5059,3.52E-02
5060,7.62E-02
5061,6.75E-02
5062,7.15E-02
5063,0.20293
5064,0.1669
5065,0.12059
5066,7.37E-03
5067,7.50E-03
5068,2.05E-02
5069,6.47E-02
5070,0.20247
5071,9.32E-02
5072,5.38E-02
5073,5.71E-02
5074,7.91E-02
5075,0.20465
5076,6.63E-02
5077,0.11577
5078,0.18394
5079,5.16E-02
5080,4.61E-02
5081,6.49E-02
5082,0.19481
5083,0.21997
5084,0.26858
5085,0.31935
5086,0.37787
5087,0.58547
5088,0.25421
5089,5.04E-02
5090,0.12236
5091,6.59E-02
5092,5.15E-02
5093,3.76E-02
5094,0.27234
5095,2.70E-02
5096,1.37E-02
5097,2.17E-02
5098,1.79E-02
5099,2.20E-02
5100,8.99E-03
5101,1.68E-02
5102,1.53E-02
5103,2.08E-02
5104,2.68E-02
5105,3.29E-02
5106,2.95E-02
5107,3.53E-02
5108,5.58E-02
5109,4.23E-02
5110,0.67085
5111,0.61889
5112,0.73102
5113,0.72721
5114,0.5537
5115,0.48968
5116,0.56589
5117,0.65759
5118,0.74866
5119,0.50295
5120,0.57091
5121,0.5498
5122,0.59205
5123,0.588
5124,0.83094
5125,0.16399
5126,0.11546
5127,0.1048
5128,0.23677
5129,6.29E-02
5130,1.58E-02
5131,2.02E-02
5132,0.54961
5133,0.71621
5134,0.73268
5135,0.52778
5136,0.55362
5137,3.14E-02
5138,4.59E-02
5139,3.07E-02
5140,4.03E-02
5141,3.65E-02
5142,5.94E-02
5143,8.10E-02
5144,4.26E-02
5145,3.78E-02
5146,5.81E-02
5147,1.6412
5148,0.78912
5149,0.83633
5150,0.82503
5151,0.97893
5152,1.2124
5153,1.0187
5154,0.10345
5155,0.11875
5156,0.31623
5157,0.25117
5158,0.17569
5159,0.28387
5160,0.31205
5161,0.16049
5162,4.14E-02
5163,4.67E-02
5164,2.33E-02
5165,2.42E-02
5166,5.27E-02
5167,0.10556
5168,2.49E-02
5169,2.70E-02
5170,3.45E-02
5171,5.22E-02
5172,0.10296
5173,3.44E-02
5174,0.19928
5175,4.18E-02
5176,0.13779
5177,0.13254
5178,6.36E-02
5179,0.11229
5180,1.20E-02
5181,1.62E-02
5182,1.50E-02
5183,1.45E-02
5184,1.11E-02
5185,4.68E-02
5186,2.15E-02
5187,0.196
5188,7.00E-02
5189,7.22E-02
5190,7.30E-02
5191,6.83E-02
5192,8.08E-02
5193,0.66731
5194,0.20974
5195,9.99E-02
5196,8.94E-02
5197,0.13591
5198,0.14079
5199,0.14631
5200,0.3172
5201,0.70067
5202,0.17848
5203,5.87E-02
5204,1.99E-02
5205,1.35E-02
5206,3.71E-02
5207,5.63E-02
5208,2.05E-02
5209,0.24802
5210,0.19674
5211,7.68E-02
5212,0.6113
5213,5.48E-02
5214,3.28E-02
5215,6.39E-02
5216,0.24831
5217,0.14303
5218,8.87E-02
5219,0.19262
5220,0.13115
5221,5.06E-02
5222,6.50E-02
5223,7.46E-02
5224,9.88E-02
5225,0.18902
5226,1.2912
5227,1.0288
5228,1.6673
5229,0.27525
5230,0.63948
5231,0.49637
5232,0.31702
5233,0.49968
5234,0.42663
5235,0.36217
5236,0.68742
5237,0.57647
5238,0.50939
5239,0.44513
5240,1.31E-02
5241,9.89E-03
5242,4.19E-02
5243,1.85E-02
5244,2.32E-02
5245,1.28E-02
5246,9.53E-03
5247,4.46E-02
5248,1.93E-02
5249,3.18E-02
5250,2.22E-02
5251,5.31E-02
5252,2.77E-02
5253,3.58E-02
5254,0.12569
5255,0.1252
5256,0.12626
5257,6.16E-02
5258,0.10038
5259,3.84E-02
5260,4.02E-02
5261,4.73E-02
5262,3.67E-02
5263,2.06E-02
5264,0.39262
5265,0.63854
5266,0.43064
5267,0.44929
5268,3.36E-02
5269,2.44E-02
5270,2.24E-02
5271,2.07E-02
5272,3.33E-02
5273,2.58E-02
5274,4.22E-02
5275,2.55E-02
5276,2.43E-02
5277,2.14E-02
5278,2.72E-02
5279,3.26E-02
5280,4.41E-02
5281,0.268
5282,0.56912
5283,0.44916
5284,0.25326
5285,0.35918
5286,2.34E-02
5287,1.99E-02
5288,2.48E-02
5289,2.89E-02
5290,2.56E-02
5291,3.49E-02
5292,2.29E-02
5293,3.14E-02
5294,1.14E-02
5295,1.32E-02
5296,9.46E-03
5297,1.45E-02
5298,3.00E-02
5299,5.98E-02
5300,2.21E-02
5301,0.80697
5302,0.81273
5303,0.87075
5304,0.86775
5305,0.68687
5306,0.57515
5307,0.64191
5308,0.6648
5309,0.61771
5310,0.69325
5311,0.85804
5312,0.83528
5313,0.67984
5314,0.63417
5315,0.24395
5316,0.13459
5317,0.12941
5318,0.10774
5319,0.16653
5320,0.55295
5321,9.46E-02
5322,0.11663
5323,2.22E-02
5324,8.56E-02
5325,3.18E-02
5326,0.1197
5327,4.60E-02
5328,9.66E-02
5329,0.16933
5330,0.26376
5331,0.39235
5332,0.20042
5333,0.30224
5334,0.86993
5335,0.70461
5336,0.81852
5337,0.66969
5338,0.62846
5339,3.61E-02
5340,3.16E-02
5341,3.21E-02
5342,4.93E-02
5343,2.78E-02
5344,2.01E-02
5345,1.92E-02
5346,1.79E-02
5347,3.07E-02
5348,2.06E-02
5349,4.15E-02
5350,2.26E-02
5351,3.50E-02
5352,9.26E-02
5353,0.39691
5354,0.12701
5355,0.27665
5356,0.15265
5357,0.19744
5358,0.33113
5359,0.16377
5360,0.2662
5361,0.17628
5362,0.17997
5363,0.5218
5364,8.74E-02
5365,0.10191
5366,8.90E-03
5367,1.30E-02
5368,8.46E-03
5369,9.04E-03
5370,1.98E-02
5371,6.21E-03
5372,4.66E-03
5373,4.18E-03
5374,6.26E-03
5375,8.09E-03
5376,6.77E-03
5377,2.52E-02
5378,1.94E-02
5379,3.61E-02
5380,1.56E-02
5381,2.21E-02
5382,8.67E-03
5383,1.35E-02
5384,5.70E-03
5385,4.70E-03
5386,8.70E-03
5387,2.54E-02
5388,1.87E-02
5389,3.66E-03
5390,4.89E-03
5391,6.63E-03
5392,0.72202
5393,0.46142
5394,0.61742
5395,0.56332
5396,0.51803
5397,0.40622
5398,6.23E-02
5399,3.82E-02
5400,3.79E-02
5401,2.58E-02
5402,4.38E-02
5403,6.90E-02
5404,4.33E-02
5405,5.06E-02
5406,5.17E-02
5407,5.76E-02
5408,9.44E-02
5409,5.02E-02
5410,3.72E-02
5411,5.90E-02
5412,5.43E-02
5413,3.75E-02
5414,9.15E-02
5415,6.27E-02
5416,3.71E-02
5417,4.77E-02
5418,4.92E-02
5419,4.56E-02
5420,6.78E-02
5421,5.03E-02
5422,1.18E-02
5423,7.80E-03
5424,8.20E-03
5425,1.98E-02
5426,1.03E-02
5427,1.05E-02
5428,1.09E-02
5429,1.79E-02
5430,2.29E-02
5431,7.59E-02
5432,6.75E-02
5433,7.09E-02
5434,6.02E-02
5435,0.10659
5436,7.01E-03
5437,8.53E-03
5438,7.84E-03
5439,1.20E-02
5440,7.59E-03
5441,1.53E-02
5442,9.69E-03
5443,6.24E-03
5444,8.14E-03
5445,7.00E-03
5446,1.44E-02
5447,1.17E-02
5448,1.04E-02
5449,1.75E-02
5450,9.05E-02
5451,0.14161
5452,9.05E-02
5453,0.23546
5454,0.17916
5455,0.23262
5456,0.27463
5457,0.15065
5458,3.06E-02
5459,4.76E-02
5460,2.89E-02
5461,4.18E-02
5462,0.12333
5463,0.10228
5464,0.10236
5465,5.34E-02
5466,4.83E-02
5467,6.48E-02
5468,6.85E-02
5469,6.33E-02
5470,0.13228
5471,0.10822
5472,6.95E-02
5473,3.38E-02
5474,3.43E-02
5475,5.52E-02
5476,0.13425
5477,4.04E-02
5478,0.11311
5479,4.50E-02
5480,0.88891
5481,0.92075
5482,0.93525
5483,0.95676
5484,0.74228
5485,0.7587
5486,0.87608
5487,0.90048
5488,0.71026
5489,4.39E-02
5490,4.51E-02
5491,0.12533
5492,4.70E-02
5493,2.28E-02
5494,1.66E-02
5495,1.99E-02
5496,3.26E-02
5497,0.4951
5498,0.21417
5499,0.2353
5500,0.36252
5501,0.26365
5502,0.39786
5503,0.28628
5504,0.5197
5505,0.76784
5506,0.65892
5507,0.60194
5508,0.44317
5509,9.96E-02
5510,0.22163
5511,0.16822
5512,0.15313
5513,0.10922
5514,0.23719
5515,0.15557
5516,3.86E-02
5517,4.04E-02
5518,7.24E-02
5519,4.29E-02
5520,8.03E-02
5521,0.11096
5522,4.32E-02
5523,2.58E-02
5524,1.75E-02
5525,2.88E-02
5526,2.68E-02
5527,0.11105
5528,6.66E-02
5529,5.00E-02
5530,0.14508
5531,0.11508
5532,8.24E-02
5533,0.25894
5534,0.13333
5535,6.41E-02
5536,5.01E-02
5537,0.16625
5538,8.53E-02
5539,8.60E-02
5540,0.18568
5541,0.25813
5542,0.39766
5543,0.45043
5544,0.31878
5545,0.41441
5546,0.37001
5547,0.32551
5548,0.22146
5549,0.17156
5550,0.1758
5551,0.26571
5552,0.35143
5553,0.2242
5554,8.18E-02
5555,7.01E-02
5556,8.85E-02
5557,0.16714
5558,9.50E-02
5559,0.10511
5560,0.11303
5561,7.80E-02
5562,6.77E-02
5563,8.11E-02
5564,0.16213
5565,0.10266
5566,8.33E-02
5567,6.58E-02
5568,0.10705
5569,0.35742
5570,0.52143
5571,0.63549
5572,0.54612
5573,0.3841
5574,0.47486
5575,0.48552
5576,0.19735
5577,0.17483
5578,0.27705
5579,0.23302
5580,0.3938
5581,0.37158
5582,0.38176
5583,0.24863
5584,0.86136
5585,0.95571
5586,0.90849
5587,0.73432
5588,0.71959
5589,0.8662
5590,0.68793
5591,0.53565
5592,0.49627
5593,3.04E-02
5594,5.43E-02
5595,1.59E-02
5596,1.89E-02
5597,6.50E-02
5598,2.68E-02
5599,5.24E-02
5600,5.87E-02
5601,5.74E-02
5602,2.38E-02
5603,7.03E-02
5604,0.12258
5605,0.16143
5606,0.15332
5607,0.15849
5608,0.15772
5609,0.24654
5610,0.17108
5611,0.16378
5612,0.18038
5613,8.69E-02
5614,0.11738
5615,8.86E-02
5616,0.13424
5617,0.12109
5618,9.88E-02
5619,0.10234
5620,0.11525
5621,7.47E-02
5622,0.12761
5623,9.99E-02
5624,0.10105
5625,0.13363
5626,0.158
5627,0.11958
5628,0.25087
5629,0.16623
5630,0.20895
5631,0.16061
5632,0.18155
5633,7.68E-02
5634,8.12E-02
5635,6.89E-02
5636,0.10114
5637,7.95E-02
5638,0.2018
5639,7.21E-02
5640,7.59E-02
5641,9.12E-02
5642,0.16899
5643,0.18277
5644,0.13128
5645,8.37E-02
5646,8.85E-02
5647,0.11205
5648,0.13086
5649,0.10051
5650,0.10512
5651,9.70E-02
5652,0.14469
5653,0.14302
5654,0.11955
5655,9.77E-02
5656,8.00E-02
5657,0.10188
5658,9.42E-02
5659,0.11041
5660,0.15033
5661,0.16404
5662,0.15773
5663,0.17046
5664,0.12133
5665,0.14384
5666,0.1434
5667,0.10986
5668,0.15101
5669,8.14E-02
5670,6.00E-02
5671,0.10287
5672,7.85E-02
5673,2.44E-02
5674,3.75E-02
5675,3.99E-02
5676,1.71E-02
5677,3.26E-02
5678,3.39E-02
5679,6.08E-02
5680,2.79E-02
5681,8.89E-02
5682,6.59E-02
5683,0.11929
5684,6.93E-02
5685,6.31E-02
5686,9.16E-02
5687,0.11458
5688,0.10118
5689,0.1238
5690,8.94E-02
5691,6.75E-02
5692,8.70E-02
5693,0.13104
5694,9.61E-02
5695,0.11911
5696,0.1316
5697,9.72E-02
5698,9.50E-02
5699,0.13895
5700,3.60E-02
5701,2.25E-02
5702,6.64E-02
5703,6.84E-02
5704,7.75E-02
5705,6.60E-02
5706,0.11463
5707,0.10117
5708,9.33E-02
5709,9.54E-02
5710,9.57E-02
5711,9.70E-02
5712,0.11452
5713,0.11103
5714,0.71763
5715,0.85076
5716,0.66037
5717,4.00E-02
5718,3.46E-02
5719,2.46E-02
5720,5.40E-02
5721,5.18E-02
5722,6.96E-02
5723,5.19E-02
5724,5.85E-02
5725,0.26051
5726,0.52691
5727,0.25119
5728,0.38744
5729,0.30813
5730,0.47116
5731,0.31302
5732,5.19E-02
5733,0.12525
5734,2.37E-02
5735,0.18317
5736,8.72E-02
5737,0.18805
5738,7.21E-02
5739,0.77708
5740,0.91347
5741,0.86951
5742,0.92665
5743,0.72213
5744,0.7969
5745,0.52795
5746,0.63485
5747,0.76021
5748,0.6127
5749,0.68743
5750,0.54233
5751,6.88E-02
5752,4.38E-02
5753,5.95E-02
5754,7.14E-02
5755,7.83E-02
5756,7.28E-02
5757,9.77E-02
5758,6.24E-02
5759,5.84E-02
5760,8.44E-02
5761,0.96267
5762,0.95556
5763,0.99971
5764,0.75133
5765,0.87618
5766,0.82634
5767,4.06E-02
5768,5.14E-02
5769,6.11E-02
5770,0.10665
5771,4.49E-02
5772,5.80E-02
5773,6.74E-02
5774,6.50E-02
5775,2.86E-02
5776,3.22E-02
5777,8.88E-02
5778,7.80E-02
5779,5.41E-02
5780,3.83E-02
5781,3.24E-02
5782,4.56E-02
5783,0.10564
5784,8.27E-02
5785,0.10299
5786,0.1052
5787,0.14353
5788,9.47E-02
5789,4.88E-02
5790,4.89E-02
5791,9.22E-02
5792,4.08E-02
5793,4.28E-02
5794,0.94048
5795,1.025
5796,1.0065
5797,0.77052
5798,0.90093
5799,0.466
5800,0.76035
5801,0.68625
5802,0.5081
5803,0.55981
5804,0.57013
5805,0.71092
5806,0.61924
5807,0.5012
5808,0.16676
5809,0.34718
5810,0.19049
5811,0.26047
5812,0.42212
5813,0.39965
5814,0.34432
5815,3.44E-02
5816,3.04E-02
5817,5.98E-02
5818,2.51E-02
5819,2.61E-02
5820,2.28E-02
5821,2.04E-02
5822,4.46E-02
5823,7.85E-02
5824,4.57E-02
5825,6.08E-02
5826,0.13532
5827,6.64E-02
5828,0.21642
5829,2.86E-02
5830,5.27E-02
5831,6.57E-02
5832,0.1293
5833,0.10666
5834,8.06E-02
5835,3.76E-02
5836,3.62E-02
5837,4.03E-02
5838,2.92E-02
5839,3.49E-02
5840,3.16E-02
5841,3.19E-02
5842,4.49E-02
5843,4.25E-02
5844,2.56E-02
5845,3.88E-02
5846,2.63E-02
5847,8.30E-02
5848,2.98E-02
5849,3.06E-02
5850,3.31E-02
5851,6.35E-02
5852,0.13868
5853,4.85E-02
5854,5.86E-02
5855,3.46E-02
5856,0.25196
5857,1.25E-02
5858,3.23E-02
5859,0.10604
5860,5.47E-02
5861,0.17409
5862,0.10446
5863,6.14E-02
5864,0.49598
5865,0.24221
5866,0.39359
5867,0.30999
5868,0.47351
5869,0.23993
5870,0.40333
5871,0.39216
5872,0.82085
5873,0.9602
5874,0.70629
5875,0.85018
5876,0.13416
5877,0.13194
5878,3.47E-02
5879,4.75E-02
5880,0.19791
5881,0.17355
5882,0.18274
5883,0.17825
5884,4.63E-02
5885,8.86E-02
5886,0.72812
5887,0.50167
5888,0.68385
5889,0.48224
5890,0.65639
5891,0.51089
5892,0.91087
5893,0.80739
5894,0.78074
5895,0.2478
5896,6.23E-02
5897,4.70E-02
5898,7.43E-02
5899,0.1134
5900,0.22852
5901,3.26E-02
5902,9.44E-02
5903,0.25701
5904,0.26443
5905,0.58186
5906,0.38009
5907,0.40858
5908,0.20091
5909,0.23223
5910,0.24807
5911,0.13666
5912,6.85E-02
5913,1.012
5914,1.0822
5915,1.0082
5916,0.86556
5917,0.88801
5918,0.8387
5919,1.0404
5920,1.1291
5921,1.1059
5922,0.93658
5923,0.18104
5924,0.14852
5925,7.04E-02
5926,8.69E-02
5927,0.15826
5928,5.47E-02
5929,0.18694
5930,5.84E-02
5931,9.82E-02
5932,0.56832
5933,0.88459
5934,0.80292
5935,0.60587
5936,0.77423
5937,0.68182
5938,0.23472
5939,0.42915
5940,0.50582
5941,0.38963
5942,5.02E-02
5943,6.54E-02
5944,5.18E-02
5945,0.27479
5946,0.10365
5947,0.22172
5948,8.75E-02
5949,0.35247
5950,0.23978
5951,0.94269
5952,1.089
5953,0.9166
5954,0.82311
5955,3.33E-02
5956,0.18229
5957,0.22976
5958,9.54E-02
5959,0.12045
5960,5.69E-02
5961,0.66434
5962,1.0064
5963,0.92477
5964,0.71336
5965,0.83117
5966,0.74115
5967,0.29485
5968,0.51836
5969,0.41379
5970,0.41089
5971,0.63788
5972,0.54591
5973,3.41E-02
5974,0.345
5975,0.1446
5976,0.2449
5977,0.24173
5978,4.14E-02
5979,0.14247
5980,0.22879
5981,2.45E-02
5982,0.19668
5983,0.12003
5984,1.1226
5985,1.1727
5986,1.252
5987,1.2589
5988,1.0044
5989,1.0046
5990,0.90452
5991,1.0462
5992,1.1829
5993,0.92909
5994,0.92818
5995,0.8776
5996,5.75E-02
5997,0.26007
5998,0.25506
5999,0.28639
6000,0.1508
6001,0.14868
6002,0.4463
6003,3.80E-02
6004,0.14075
6005,0.24509
6006,4.59E-02
6007,0.23953
6008,0.14607
6009,0.90371
6010,0.66325
6011,0.5592
6012,0.45681
6013,0.46559
6014,0.51553
6015,0.49714
6016,0.5621
6017,0.78779
6018,0.55629
6019,0.66701
6020,0.73618
6021,1.1817
6022,0.80175
6023,1.034
6024,1.2196
6025,0.92831
6026,0.80632
6027,0.87982
6028,1.2311
6029,1.0709
6030,0.97925
6031,0.98187
6032,0.88791
6033,1.1482
6034,1.3118
6035,1.4009
6036,1.2421
6037,1.0582
6038,1.008
6039,0.7778
6040,1.0823
6041,0.83964
6042,0.89678
6043,0.84645
6044,0.24383
6045,0.30281
6046,0.1662
6047,0.36518
6048,0.63049
6049,0.46432
6050,0.68808
6051,0.63893
6052,3.46E-02
6053,0.42779
6054,0.1948
6055,0.26567
6056,7.77E-02
6057,6.14E-02
6058,0.16332
6059,0.2974
6060,0.28969
6061,0.33467
6062,0.16197
6063,0.14548
6064,0.15972
6065,0.2698
6066,2.61E-02
6067,0.22793
6068,0.12262
6069,0.13516
6070,0.28579
6071,0.3662
6072,0.17791
6073,0.19195
6074,1.4043
6075,1.3572
6076,1.0642
6077,1.0153
6078,0.18701
6079,0.12772
6080,0.17819
6081,0.2002
6082,0.21189
6083,0.79184
6084,0.78993
6085,0.51433
6086,0.34065
6087,0.45987
6088,0.56649
6089,0.63876
6090,1.0206
6091,1.2079
6092,1.2631
6093,1.0147
6094,0.86918
6095,1.3334
6096,1.4428
6097,1.5608
6098,1.4154
6099,1.2468
6100,1.1
6101,0.93322
6102,1.2577
6103,1.0874
6104,0.94088
6105,0.73996
6106,1.2597
6107,0.99641
6108,1.2811
6109,1.0121
6110,0.8668
6111,0.29225
6112,0.24571
6113,0.71918
6114,0.40506
6115,0.73317
6116,0.3409
6117,0.58885
6118,0.45748
6119,1.015
6120,0.76057
6121,0.52727
6122,0.84743
6123,0.45138
6124,0.70188
6125,0.43686
6126,3.00E-02
6127,0.52507
6128,0.2567
6129,4.12E-02
6130,0.11483
6131,0.29482
6132,0.105
6133,0.22098
6134,9.69E-02
6135,0.20591
6136,8.05E-02
6137,0.1009
6138,0.23792
6139,0.13462
6140,0.16974
6141,0.2286
6142,0.41514
6143,0.15464
6144,0.14882
6145,0.18978
6146,0.1885
6147,5.93E-02
6148,0.51162
6149,5.90E-02
6150,0.12617
6151,0.17992
6152,0.12691
6153,0.20925
6154,0.19927
6155,0.21098
6156,0.1209
6157,0.16073
6158,0.22179
6159,0.20302
6160,0.17741
6161,0.20471
6162,1.4505
6163,1.5112
6164,1.1994
6165,1.0531
6166,1.5672
6167,1.5265
6168,1.6636
6169,1.2545
6170,0.27753
6171,0.35834
6172,0.35457
6173,0.3965
6174,0.18572
6175,8.58E-02
6176,0.16926
6177,6.01E-02
6178,0.17981
6179,7.06E-02
6180,0.32287
6181,0.26037
6182,0.13866
6183,5.67E-02
6184,0.14957
6185,0.44159
6186,0.33913
6187,0.21464
6188,0.22518
6189,0.23505
6190,0.43772
6191,0.44792
6192,0.5004
6193,0.23891
6194,9.81E-02
6195,0.22086
6196,1.4826
6197,1.7259
6198,1.5793
6199,1.3145
6200,1.0827
6201,1.4363
6202,1.1696
6203,0.65789
6204,1.258
6205,0.9341
6206,1.281
6207,0.99003
6208,1.0687
6209,0.14825
6210,0.61853
6211,0.28749
6212,0.67135
6213,0.25447
6214,0.74968
6215,0.55692
6216,1.179
6217,0.90894
6218,0.91537
6219,0.51909
6220,0.28738
6221,0.10145
6222,0.1594
6223,0.46661
6224,9.23E-02
6225,7.32E-02
6226,0.63744
6227,0.32268
6228,0.14716
6229,0.64506
6230,0.11441
6231,0.25339
6232,0.1288
6233,0.32903
6234,0.27293
6235,0.13962
6236,0.29155
6237,0.16199
6238,0.43427
6239,0.33285
6240,0.3516
6241,0.21997
6242,0.54245
6243,0.37722
6244,0.39602
6245,0.28103
6246,0.26303
6247,1.6836
6248,1.5708
6249,1.7907
6250,1.2756
6251,1.3549
6252,0.40949
6253,0.5525
6254,0.36217
6255,0.56903
6256,0.42361
6257,0.29101
6258,0.18033
6259,0.29925
6260,1.6764
6261,1.9309
6262,1.8222
6263,1.4097
6264,1.489
6265,1.2596
6266,1.6789
6267,1.2655
6268,1.3443
6269,0.55808
6270,1.2376
6271,0.83561
6272,1.2824
6273,1.0255
6274,1.0266
6275,7.94E-02
6276,0.50104
6277,0.15983
6278,0.68726
6279,0.19877
6280,0.68805
6281,0.47896
6282,0.67097
6283,1.4048
6284,1.0652
6285,0.99606
6286,0.45501
6287,0.56928
6288,1.0746
6289,0.86173
6290,0.46221
6291,4.75E-02
6292,0.31774
6293,0.3361
6294,0.20615
6295,0.10848
6296,0.21478
6297,0.62146
6298,0.63752
6299,0.4588
6300,0.47638
6301,0.34365
6302,0.4319
6303,0.12244
6304,0.29595
6305,0.47033
6306,7.73E-02
6307,0.32102
6308,0.26298
6309,0.74648
6310,0.39295
6311,0.18041
6312,4.47E-02
6313,4.91E-02
6314,0.20568
6315,0.1466
6316,0.25847
6317,0.14
6318,1.8146
6319,1.6376
6320,1.9435
6321,1.3758
6322,1.3781
6323,1.93
6324,2.1668
6325,2.2221
6326,1.5928
6327,1.5957
6328,0.65441
6329,0.49847
6330,0.70803
6331,0.4934
6332,0.66203
6333,0.25079
6334,0.52688
6335,0.36942
6336,0.41918
6337,1.2228
6338,0.693
6339,1.2565
6340,0.96641
6341,0.83849
6342,0.17672
6343,0.33818
6344,9.18E-02
6345,0.60285
6346,0.47626
6347,1.4801
6348,1.9567
6349,2.1149
6350,1.4865
6351,1.489
6352,1.2743
6353,0.78386
6354,1.2465
6355,1.6136
6356,0.64445
6357,0.93702
6358,0.43538
6359,0.34607
6360,0.15115
6361,0.35038
6362,0.37907
6363,0.22483
6364,0.60012
6365,0.4399
6366,0.44443
6367,0.60739
6368,0.47312
6369,0.31715
6370,0.5102
6371,0.6783
6372,0.54357
6373,0.3867
6374,0.568
6375,0.25046
6376,0.42127
6377,0.40472
6378,0.22675
6379,0.38744
6380,0.28019
6381,0.19893
6382,1.986
6383,1.7108
6384,2.0948
6385,1.4199
6386,1.2903
6387,0.47715
6388,0.88941
6389,0.24172
6390,0.29374
6391,4.00E-02
6392,0.58268
6393,0.17355
6394,0.93795
6395,0.5878
6396,1.0392
6397,0.28812
6398,0.3109
6399,0.84026
6400,0.22181
6401,6.24E-02
6402,0.62991
6403,1.7196
6404,1.4538
6405,1.8529
6406,1.2534
6407,1.0424
6408,0.77274
6409,0.62984
6410,0.82363
6411,0.79707
6412,0.73175
6413,0.43338
6414,0.59657
6415,2.3506
6416,2.4014
6417,1.722
6418,2.2469
6419,2.2224
6420,1.621
6421,1.4088
6422,2.4573
6423,2.3794
6424,1.778
6425,0.25051
6426,1.1701
6427,0.53692
6428,1.1159
6429,0.75315
6430,0.30911
6431,0.17844
6432,0.19873
6433,0.38965
6434,0.48826
6435,0.5641
6436,0.35946
6437,0.35956
6438,0.13286
6439,0.58797
6440,0.22668
6441,0.38797
6442,0.69381
6443,0.48835
6444,0.48885
6445,0.71668
6446,0.65241
6447,0.51657
6448,0.79259
6449,0.72821
6450,0.42963
6451,0.59243
6452,2.1228
6453,2.1649
6454,1.6853
6455,1.3224
6456,2.4315
6457,2.5455
6458,2.6134
6459,1.832
6460,1.7019
6461,0.67548
6462,0.37141
6463,0.5385
6464,0.28612
6465,0.15226
6466,0.21845
6467,1.1029
6468,1.2021
6469,0.72137
6470,0.37346
6471,0.41268
6472,0.28252
6473,0.41624
6474,0.22143
6475,1.9544
6476,2.1378
6477,1.6544
6478,1.3548
6479,0.73439
6480,0.86873
6481,1.225
6482,0.60843
6483,0.72841
6484,0.86777
6485,0.73251
6486,0.90224
6487,0.59398
6488,0.84316
6489,0.47952
6490,0.34625
6491,0.53935
6492,0.46771
6493,0.35397
6494,8.82E-02
6495,0.33322
6496,0.58208
6497,0.221
6498,0.27927
6499,2.5379
6500,1.7547
6501,1.6244
6502,2.6536
6503,2.1075
6504,2.5498
6505,2.7108
6506,1.9747
6507,1.7442
6508,2.237
6509,2.7014
6510,2.7748
6511,2.3561
6512,2.0403
6513,1.8089
6514,0.11257
6515,1.045
6516,0.9746
6517,0.37032
6518,0.90959
6519,0.68212
6520,0.42768
6521,3.60E-02
6522,0.31466
6523,0.55203
6524,0.32587
6525,2.0735
6526,1.5589
6527,1.4951
6528,1.2665
6529,0.72821
6530,0.45336
6531,0.7018
6532,0.90009
6533,0.86984
6534,0.5951
6535,0.84026
6536,1.2725
6537,1.8725
6538,1.5551
6539,0.9679
6540,1.3238
6541,0.76495
6542,0.48213
6543,0.62031
6544,0.70825
6545,0.77346
6546,0.38668
6547,0.20898
6548,0.46444
6549,0.16737
6550,0.26177
6551,1.3912
6552,0.86695
6553,0.48313
6554,0.24028
6555,1.0735
6556,0.48632
6557,0.23412
6558,0.29196
6559,0.60567
6560,0.57523
6561,0.23545
6562,0.33617
6563,0.53549
6564,0.29864
6565,5.92E-02
6566,0.30682
6567,0.24313
6568,0.90425
6569,0.62642
6570,0.94327
6571,0.37865
6572,0.63414
6573,0.57183
6574,2.7583
6575,2.3365
6576,2.749
6577,2.0213
6578,2.6768
6579,2.0029
6580,1.9781
6581,2.47
6582,2.6619
6583,2.6324
6584,1.9382
6585,2.8239
6586,2.7943
6587,2.0982
6588,0.88086
6589,0.56223
6590,1.4634
6591,0.83586
6592,1.424
6593,1.0603
6594,1.0129
6595,5.87E-02
6596,0.23195
6597,0.81663
6598,0.4532
6599,0.83305
6600,0.59613
6601,0.91287
6602,0.60391
6603,0.50699
6604,0.10302
6605,0.41642
6606,0.49825
6607,0.13614
6608,9.35E-02
6609,1.4661
6610,2.4028
6611,2.0443
6612,1.6744
6613,2.0049
6614,1.2629
6615,0.55465
6616,0.67101
6617,0.73373
6618,0.36444
6619,0.42781
6620,0.49016
6621,7.96E-02
6622,0.38162
6623,0.55334
6624,0.49166
6625,0.55298
6626,0.13873
6627,0.56917
6628,0.48616
6629,0.20291
6630,0.26354
6631,1.5185
6632,0.44179
6633,1.011
6634,1.1487
6635,0.37158
6636,0.30867
6637,0.73741
6638,0.9164
6639,0.86924
6640,0.9337
6641,0.93229
6642,0.56302
6643,0.6255
6644,0.81104
6645,1.931
6646,1.396
6647,0.72037
6648,1.3994
6649,1.7306
6650,1.0356
6651,0.98845
6652,0.14729
6653,0.10977
6654,1.1022
6655,0.40831
6656,0.36042
6657,0.85465
6658,0.87199
6659,0.78769
6660,0.56376
6661,0.93343
6662,0.93195
6663,0.84911
6664,0.62522
6665,2.6177
6666,2.5888
6667,2.4826
6668,1.8882
6669,1.8926
6670,2.2237
6671,2.7861
6672,2.4559
6673,2.9086
6674,2.8672
6675,2.0872
6676,2.4182
6677,2.6484
6678,2.8386
6679,2.3894
6680,0.57991
6681,0.23904
6682,0.50368
6683,0.78176
6684,6.01E-02
6685,1.5882
6686,2.549
6687,2.1798
6688,1.6591
6689,2.0583
6690,1.3159
6691,0.51011
6692,0.50832
6693,0.38614
6694,0.49333
6695,6.90E-02
6696,0.51
6697,0.39232
6698,0.4272
6699,0.1462
6700,0.21674
6701,0.58615
6702,1.1512
6703,1.5486
6704,0.43979
6705,0.36786
6706,0.80689
6707,0.61956
6708,0.71892
6709,0.75902
6710,0.77875
6711,0.66704
6712,0.45297
6713,0.52586
6714,9.82E-02
6715,0.92743
6716,0.94619
6717,0.9027
6718,0.94863
6719,0.57757
6720,0.65028
6721,0.80031
6722,0.6984
6723,0.73362
6724,0.92901
6725,0.9307
6726,0.81116
6727,0.84587
6728,0.63384
6729,0.39348
6730,0.68901
6731,0.77581
6732,0.9099
6733,0.86362
6734,0.87794
6735,0.79028
6736,0.61082
6737,0.22037
6738,0.65655
6739,0.19108
6740,0.39195
6741,0.40829
6742,0.24122
6743,0.31746
6744,0.13384
6745,0.14663
6746,0.59882
6747,0.70122
6748,0.5302
6749,0.61291
6750,0.78784
6751,0.61674
6752,0.69969
6753,2.7311
6754,1.9466
6755,2.56
6756,1.9608
6757,2.2825
6758,2.2097
6759,2.9613
6760,2.6318
6761,3.0328
6762,2.7103
6763,2.5124
6764,2.4399
6765,2.992
6766,2.7496
6767,2.4721
6768,2.3994
6769,0.67783
6770,1.3678
6771,0.65445
6772,1.6878
6773,1.0089
6774,1.6147
6775,0.2787
6776,8.00E-02
6777,0.34599
6778,1.0106
6779,0.33458
6780,0.64202
6781,0.61229
6782,0.74191
6783,0.19625
6784,7.91E-02
6785,1.7417
6786,2.341
6787,1.838
6788,2.1411
6789,2.069
6790,0.74759
6791,1.3181
6792,1.619
6793,0.69047
6794,0.43751
6795,1.5471
6796,0.71095
6797,0.77246
6798,0.80134
6799,0.80122
6800,0.64597
6801,0.2972
6802,0.54868
6803,2.8206
6804,2.7407
6805,3.1174
6806,2.9527
6807,2.1914
6808,2.4706
6809,1.9793
6810,2.7103
6811,2.0423
6812,1.9496
6813,2.2282
6814,0.66939
6815,1.4459
6816,0.64535
6817,1.3513
6818,1.0235
6819,1.6288
6820,0.36976
6821,0.11554
6822,0.43273
6823,0.63681
6824,0.3116
6825,0.29806
6826,0.10341
6827,0.84321
6828,0.39891
6829,0.31846
6830,0.31404
6831,9.63E-02
6832,0.15618
6833,0.21909
6834,0.11515
6835,0.63378
6836,0.78855
6837,0.86931
6838,0.86554
6839,0.85783
6840,0.61858
6841,0.69843
6842,0.46641
6843,0.57421
6844,0.40551
6845,0.48447
6846,0.80964
6847,0.79808
6848,0.55912
6849,0.63878
6850,1.9161
6851,2.7953
6852,2.5648
6853,2.0514
6854,1.8677
6855,2.1475
6856,0.74172
6857,0.74433
6858,0.32397
6859,0.26405
6860,0.38027
6861,4.99E-02
6862,0.96617
6863,1.5494
6864,1.3635
6865,0.78631
6866,0.67087
6867,1.6435
6868,0.8049
6869,0.83727
6870,0.83205
6871,0.84307
6872,0.32804
6873,0.44363
6874,3.0063
6875,2.9407
6876,3.2561
6877,2.2448
6878,2.0894
6879,2.1736
6880,2.2888
6881,3.0918
6882,2.0812
6883,1.9258
6884,2.1971
6885,3.0253
6886,2.4206
6887,2.9064
6888,2.0129
6889,1.8574
6890,0.14258
6891,0.48633
6892,0.67121
6893,0.81486
6894,0.81631
6895,0.75977
6896,0.57525
6897,0.42367
6898,0.40528
6899,0.1763
6900,1.101
6901,0.69411
6902,0.21532
6903,0.10681
6904,0.22849
6905,0.24862
6906,0.39918
6907,0.18089
6908,0.30368
6909,0.14099
6910,0.72342
6911,0.66843
6912,0.35886
6913,0.48681
6914,0.31847
6915,0.70948
6916,0.70275
6917,1.6266
6918,1.4146
6919,1.2598
6920,0.45994
6921,0.14391
6922,0.53973
6923,0.61226
6924,0.45883
6925,0.83853
6926,0.88919
6927,0.2636
6928,0.1209
6929,0.44331
6930,1.2757
6931,1.908
6932,1.499
6933,1.3438
6934,0.80597
6935,0.82502
6936,0.9205
6937,0.89388
6938,0.87717
6939,0.87091
6940,0.12014
6941,0.47824
6942,0.45956
6943,0.27733
6944,0.48951
6945,0.69305
6946,0.73664
6947,0.60696
6948,0.38255
6949,0.34219
6950,0.48622
6951,1.4988
6952,1.0611
6953,0.5575
6954,0.38214
6955,0.42247
6956,0.419
6957,0.14968
6958,0.37933
6959,0.25413
6960,0.18324
6961,7.83E-02
6962,7.99E-02
6963,7.07E-02
6964,0.54953
6965,0.46579
6966,0.1072
6967,0.24678
6968,0.54611
6969,0.82184
6970,0.15014
6971,0.48849
6972,0.45228
6973,0.11272
6974,0.89315
6975,0.94274
6976,1.0221
6977,0.91186
6978,6.49E-02
6979,0.36151
6980,0.40567
6981,0.46526
6982,2.5375
6983,0.83286
6984,1.8005
6985,2.2769
6986,1.376
6987,1.8186
6988,0.99434
6989,0.919
6990,0.8934
6991,0.87957
6992,0.11515
6993,0.48141
6994,0.483
6995,0.38631
6996,3.221
6997,3.3917
6998,3.0741
6999,2.1745
7000,2.6178
7001,2.6168
7002,1.6927
7003,2.3483
7004,1.5675
7005,1.0502
7006,1.0483
7007,1.1529
7008,2.0095
7009,3.2701
7010,2.8339
7011,2.0536
7012,2.4957
7013,0.96273
7014,0.99645
7015,1.1554
7016,1.0058
7017,0.41411
7018,0.45857
7019,0.48237
7020,0.89006
7021,0.19906
7022,0.55402
7023,0.12765
7024,0.90299
7025,0.858
7026,1.0449
7027,0.92403
7028,0.30611
7029,8.27E-02
7030,0.24351
7031,0.50532
7032,0.60067
7033,0.37845
7034,0.24347
7035,0.84608
7036,1.9093
7037,1.432
7038,1.0281
7039,0.74965
7040,0.81182
7041,0.61348
7042,0.71466
7043,0.21568
7044,0.62162
7045,0.18497
7046,0.10515
7047,0.34448
7048,0.40342
7049,0.21035
7050,0.31709
7051,0.19845
7052,0.1338
7053,8.61E-02
7054,2.3332
7055,0.85246
7056,1.8619
7057,1.8737
7058,1.8286
7059,3.124
7060,3.0014
7061,3.4025
7062,3.1238
7063,3.1486
7064,2.6672
7065,2.6209
7066,2.3385
7067,2.8092
7068,2.3527
7069,2.3072
7070,0.93127
7071,0.88211
7072,0.84813
7073,0.48472
7074,0.39036
7075,2.0874
7076,2.7127
7077,1.467
7078,1.4127
7079,1.3702
7080,2.2273
7081,2.1805
7082,1.1158
7083,1.088
7084,1.3284
7085,1.0983
7086,0.12376
7087,0.4962
7088,0.60028
7089,0.85625
7090,0.30962
7091,0.7432
7092,0.47669
7093,0.12505
7094,0.81819
7095,1.2067
7096,1.136
7097,0.10703
7098,0.37507
7099,2.3343
7100,0.79285
7101,1.814
7102,1.4861
7103,1.8339
7104,3.0847
7105,3.1106
7106,3.3951
7107,3.0893
7108,3.2425
7109,2.2343
7110,2.5824
7111,2.2805
7112,2.8125
7113,1.9559
7114,2.3049
7115,0.11684
7116,0.24659
7117,0.42665
7118,0.12713
7119,0.12322
7120,6.56E-02
7121,1.2058
7122,2.2348
7123,1.788
7124,1.3807
7125,0.98888
7126,1.2039
7127,0.91524
7128,0.55624
7129,0.98099
7130,0.2586
7131,0.39209
7132,0.58338
7133,0.51153
7134,9.76E-02
7135,0.1628
7136,0.33414
7137,0.26368
7138,0.95105
7139,0.85836
7140,0.82012
7141,0.30683
7142,0.13684
7143,0.15678
7144,0.3556
7145,0.40154
7146,0.36986
7147,2.4126
7148,2.9929
7149,1.6142
7150,1.8294
7151,1.9804
7152,1.5596
7153,2.3273
7154,0.74378
7155,0.88051
7156,0.81438
7157,0.45771
7158,0.87127
7159,0.41492
7160,0.37653
7161,2.2852
7162,0.65048
7163,1.6799
7164,1.4321
7165,1.3953
7166,1.3477
7167,1.1894
7168,1.5228
7169,1.2337
7170,0.20377
7171,0.2307
7172,1.452
7173,1.3365
7174,0.16014
7175,0.17269
7176,3.1199
7177,3.2752
7178,3.4218
7179,3.3998
7180,2.2642
7181,2.2313
7182,2.2045
7183,3.1155
7184,2.7214
7185,1.9599
7186,1.9249
7187,0.64563
7188,0.38383
7189,0.10364
7190,0.24025
7191,0.1985
7192,0.45963
7193,0.3468
7194,0.17711
7195,1.5592
7196,2.5453
7197,2.1323
7198,1.3813
7199,1.2671
7200,0.89057
7201,1.7252
7202,1.3188
7203,0.56554
7204,0.69455
7205,0.97243
7206,0.85985
7207,0.68608
7208,0.3067
7209,0.43212
7210,0.42004
7211,2.7114
7212,3.2509
7213,1.9624
7214,2.1125
7215,1.8474
7216,2.0811
7217,1.0046
7218,0.82941
7219,0.77725
7220,0.1364
7221,0.15394
7222,0.20988
7223,0.14853
7224,0.37772
7225,0.96393
7226,0.56868
7227,0.46189
7228,0.60397
7229,1.0363
7230,0.28659
7231,1.511
7232,1.3368
7233,1.7007
7234,1.3206
7235,1.065
7236,0.32434
7237,1.5852
7238,1.4683
7239,0.20753
7240,2.1088
7241,1.4926
7242,2.0359
7243,1.9937
7244,1.3137
7245,1.3386
7246,0.93764
7247,0.33674
7248,0.50775
7249,1.4828
7250,1.0882
7251,0.32553
7252,0.47494
7253,1.8859
7254,2.8359
7255,0.63055
7256,2.4441
7257,2.9029
7258,1.4335
7259,1.6668
7260,2.0308
7261,1.6324
7262,0.85626
7263,1.0209
7264,3.0194
7265,3.3942
7266,3.35
7267,3.4616
7268,2.9071
7269,2.2268
7270,2.952
7271,2.5528
7272,2.5113
7273,1.8295
7274,3.4428
7275,2.2073
7276,0.23066
7277,0.77661
7278,1.032
7279,0.82066
7280,0.41331
7281,0.77775
7282,0.24908
7283,0.13999
7284,0.39108
7285,1.9318
7286,1.2777
7287,1.8649
7288,1.1844
7289,1.2096
7290,1.1019
7291,0.28166
7292,0.72274
7293,0.19178
7294,0.22017
7295,1.6575
7296,1.3944
7297,1.8084
7298,1.4178
7299,0.40873
7300,1.1384
7301,0.39076
7302,0.28851
7303,1.1608
7304,1.6913
7305,1.5961
7306,0.29058
7307,0.27259
7308,1.5898
7309,1.1935
7310,0.21924
7311,0.75201
7312,1.3345
7313,0.2381
7314,0.80908
7315,0.90275
7316,2.1828
7317,3.0481
7318,2.716
7319,3.0775
7320,1.8134
7321,1.9039
7322,2.3082
7323,1.9265
7324,1.4947
7325,2.8807
7326,3.3955
7327,3.2728
7328,3.4253
7329,2.1349
7330,2.8402
7331,2.1611
7332,2.8703
7333,2.414
7334,1.7329
7335,2.4393
7336,1.7584
7337,3.5385
7338,2.2474
7339,2.2742
7340,2.3645
7341,1.0382
7342,0.76057
7343,0.12481
7344,0.13309
7345,0.21219
7346,1.7568
7347,1.0716
7348,1.6282
7349,1.0764
7350,1.1883
7351,1.3115
7352,1.2164
7353,0.82132
7354,0.11378
7355,0.12417
7356,0.58436
7357,0.22208
7358,2.4525
7359,3.2033
7360,2.8928
7361,3.1818
7362,2.0297
7363,1.4787
7364,0.10545
7365,0.97059
7366,1.5511
7367,8.80E-02
7368,1.0467
7369,2.5017
7370,2.1431
7371,1.6392
7372,1.7465
7373,1.4515
7374,1.9281
7375,0.44225
7376,0.32086
7377,1.1154
7378,1.2568
7379,1.8331
7380,1.0188
7381,2.8042
7382,3.415
7383,3.0974
7384,3.3934
7385,2.1252
7386,2.2378
7387,2.6399
7388,2.2175
7389,1.6668
7390,1.7794
7391,3.5465
7392,2.2783
7393,2.3943
7394,2.3908
7395,1.5368
7396,1.0041
7397,0.12079
7398,0.72628
7399,1.9948
7400,1.6344
7401,5.62E-02
7402,1.1192
7403,1.6562
7404,0.11174
7405,1.2887
7406,1.4416
7407,1.1326
7408,0.33137
7409,2.5797
7410,3.234
7411,2.9934
7412,3.1858
7413,2.2382
7414,2.3908
7415,2.0814
7416,1.2814
7417,2.6278
7418,2.241
7419,2.026
7420,1.7168
7421,1.438
7422,6.94E-02
7423,3.27E-02
7424,0.90256
7425,0.33663
7426,0.62445
7427,0.17863
7428,1.4804
7429,1.4782
7430,1.9688
7431,0.2507
7432,1.2007
7433,1.5317
7434,0.88905
7435,1.4138
7436,1.252
7437,1.0929
7438,2.5111
7439,3.2278
7440,2.8095
7441,2.2321
7442,2.0731
7443,2.3859
7444,1.9707
7445,1.8083
7446,1.6495
7447,3.105
7448,3.4769
7449,2.5287
7450,2.3719
7451,1.5731
7452,2.3689
7453,1.4348
7454,0.88937
7455,0.30148
7456,0.45064
7457,0.14886
7458,0.66825
7459,2.652
7460,3.2366
7461,3.0086
7462,3.1845
7463,2.44
7464,1.7239
7465,0.17968
7466,1.1582
7467,1.6678
7468,0.22564
7469,1.5096
7470,2.6151
7471,2.2089
7472,2.0497
7473,1.7446
7474,1.328
7475,7.09E-02
7476,0.74275
7477,1.2392
7478,1.1682
7479,1.3209
7480,1.2588
7481,2.2688
7482,3.0577
7483,1.6822
7484,2.617
7485,2.1091
7486,2.2614
7487,2.1998
7488,2.2002
7489,1.7635
7490,1.6914
7491,1.7836
7492,1.4322
7493,0.13684
7494,0.89771
7495,1.2621
7496,0.29784
7497,0.44928
7498,1.3772
7499,1.8609
7500,1.753
7501,0.21039
7502,8.21E-02
7503,2.9889
7504,3.3787
7505,2.4811
7506,2.6331
7507,1.3146
7508,0.79172
7509,0.50672
7510,2.5647
7511,3.1511
7512,2.8172
7513,2.9462
7514,1.8554
7515,2.4044
7516,1.6404
7517,0.19263
7518,1.0668
7519,0.26939
7520,0.94127
7521,1.482
7522,2.4051
7523,1.5755
7524,1.4504
7525,1.997
7526,1.6127
7527,1.177
7528,9.82E-02
7529,0.64278
7530,1.1218
7531,0.7177
7532,1.2596
7533,1.1957
7534,2.1117
7535,2.937
7536,1.5668
7537,2.4092
7538,2.0568
7539,1.6443
7540,2.1921
7541,2.1311
7542,1.6203
7543,1.6945
7544,2.7973
7545,3.1219
7546,2.0318
7547,2.5808
7548,1.2167
7549,0.15516
7550,0.80603
7551,8.88E-02
7552,0.49514
7553,1.6906
7554,1.276
7555,1.7089
7556,0.5253
7557,7.52E-02
7558,1.6003
7559,1.1684
7560,0.41843
7561,0.13743
7562,1.1861
7563,0.68462
7564,4.76E-02
7565,0.54438
7566,1.424
7567,1.0771
7568,0.13539
7569,0.5636
7570,0.93987
7571,0.67175
7572,0.67994
7573,1.9182
7574,2.595
7575,2.135
7576,1.3738
7577,1.7846
7578,1.4801
7579,1.5023
7580,1.6421
7581,1.4306
7582,1.8183
7583,2.7935
7584,2.4115
7585,2.5702
7586,1.6703
7587,1.6948
7588,0.21143
7589,0.31273
7590,0.89843
7591,1.5578
7592,0.86894
7593,0.87979
7594,2.4582
7595,2.7055
7596,1.7949
7597,1.8216
7598,1.9622
7599,1.1149
7600,1.1836
7601,1.3591
7602,1.2683
7603,1.0657
7604,0.45274
7605,0.43367
7606,0.54024
7607,0.76765
7608,0.14076
7609,0.10578
7610,0.18121
7611,0.65452
7612,0.14489
7613,9.55E-02
7614,1.0087
7615,0.80241
7616,0.78241
7617,0.78983
7618,0.63894
7619,0.19396
7620,0.6183
7621,0.68554
7622,0.23784
7623,0.41018
7624,0.19142
7625,0.22768
7626,0.35482
7627,0.61052
7628,0.7092
7629,0.1412
7630,0.54011
7631,1.6474
7632,2.2415
7633,2.0221
7634,1.7336
7635,1.5007
7636,0.89337
7637,0.18301
7638,0.42257
7639,0.63122
7640,0.76085
7641,1.3633
7642,0.74752
7643,0.99365
7644,1.1278
7645,1.1566
7646,1.4416
7647,0.62049
7648,0.99279
7649,0.76743
7650,2.3308
7651,1.7363
7652,2.0228
7653,1.4082
7654,1.577
7655,2.2732
7656,2.1834
7657,1.5628
7658,1.7363
7659,0.30617
7660,0.43317
7661,0.2199
7662,0.2682
7663,0.31742
7664,0.39055
7665,0.42439
7666,0.21766
7667,0.30445
7668,0.24467
7669,0.26437
7670,0.30833
7671,0.48669
7672,0.33003
7673,0.2957
7674,0.34771
7675,0.23387
7676,0.3143
7677,0.35998
7678,0.3853
7679,0.27301
7680,0.34737
7681,1.7814
7682,1.9864
7683,1.8773
7684,1.719
7685,1.4811
7686,1.5072
7687,1.0799
7688,1.5853
7689,1.3008
7690,1.1897
7691,1.1977
7692,1.2176
7693,0.98111
7694,0.29772
7695,0.44602
7696,0.55812
7697,0.14864
7698,0.58321
7699,0.62536
7700,0.36803
7701,0.40232
7702,0.34061
7703,0.56114
7704,0.16294
7705,0.28004
7706,0.32409
7707,0.2957
7708,0.80375
7709,0.32695
7710,0.3486
7711,0.33358
7712,0.58907
7713,0.68053
7714,0.52221
7715,0.70849
7716,0.42944
7717,0.27045
7718,0.88003
7719,0.36224
7720,0.82318
7721,0.8474
7722,0.58768
7723,1.6012
7724,0.78058
7725,1.3151
7726,0.98751
7727,0.95709
7728,1.1048
7729,0.91144
7730,1.1287
7731,1.0655
7732,1.6238
7733,1.3888
7734,1.4135
7735,1.4214
7736,1.5439
7737,1.3924
7738,1.3156
7739,1.2816
7740,1.2784
7741,1.5155
7742,1.0827
7743,1.2548
7744,1.2449
7745,0.67613
7746,1.1144
7747,1.0313
7748,0.93356
7749,1.0336
7750,0.79762
7751,0.60185
7752,0.25554
7753,0.83969
7754,0.68646
7755,0.36341
7756,0.44742
7757,0.73968
7758,0.38235
7759,0.4651
7760,0.36668
7761,0.8948
7762,0.73052
7763,0.26989
7764,0.71102
7765,0.43616
7766,1.2228
7767,0.40355
7768,0.5807
7769,0.21134
7770,0.25379
7771,0.18868
7772,0.18685
7773,0.20551
7774,0.20199
7775,0.22888
7776,0.21294
7777,0.19882
7778,0.47581
7779,0.20966
7780,0.25999
7781,0.17865
7782,0.20292
7783,0.37685
7784,0.22639
7785,0.37649
7786,0.1952
7787,0.30749
7788,0.15971
7789,0.21039
7790,0.2419
7791,0.19677
7792,0.19291
7793,0.23801
7794,0.21186
7795,0.45614
7796,0.5396
7797,0.13335
7798,0.1389
7799,0.26278
7800,0.39535
7801,0.2205
7802,0.4381
7803,0.34925
7804,0.58336
7805,1.169
7806,1.0373
7807,1.1338
7808,0.98396
7809,0.95899
7810,1.105
7811,1.0867
7812,1.0919
7813,0.60904
7814,0.57585
7815,0.2889
7816,1.0103
7817,0.80297
7818,1.3527
7819,1.283
7820,0.80071
7821,1.2318
7822,1.1086
7823,0.70037
7824,1.3701
7825,1.0146
7826,0.70222
7827,0.84832
7828,1.1025
7829,1.0004
7830,1.018
7831,0.8348
7832,0.83408
7833,0.99948
7834,1.2046
7835,0.83858
7836,1.2358
7837,0.82187
7838,0.69494
7839,0.69497
7840,0.65596
7841,0.97349
7842,1.0663
7843,0.92268
7844,0.76173
7845,0.76893
7846,0.81
7847,1.1686
7848,0.88958
7849,0.13733
7850,0.13964
7851,0.17199
7852,0.15442
7853,0.17221
7854,0.17878
7855,0.18881
7856,0.13481
7857,0.21146
7858,0.32955
7859,0.14894
7860,0.25226
7861,0.34009
7862,0.1707
7863,0.39714
7864,0.37182
7865,0.63525
7866,0.48181
7867,0.62568
7868,0.75777
7869,0.67958
7870,0.73017
7871,0.64976
7872,0.75476
7873,0.73658
7874,0.71316
7875,0.83843
7876,0.74788
7877,0.78716
7878,0.81148
7879,0.80824
7880,0.77673
7881,0.88814
7882,0.37014
7883,0.5229
7884,0.77443
7885,0.37257
7886,0.63667
7887,0.79844
7888,0.38534
7889,0.17369
7890,0.42566
7891,0.22701
7892,0.18089
7893,0.12674
7894,0.17116
7895,0.23402
7896,0.58406
7897,0.37081
7898,0.35862
7899,0.83742
7900,0.70148
7901,1.2735
7902,1.3724
7903,0.58404
7904,1.2124
7905,0.91746
7906,0.66716
7907,1.7391
7908,0.54479
7909,0.5869
7910,0.39567
7911,0.3941
7912,1.1009
7913,0.31082
7914,0.56398
7915,0.50509
7916,0.37536
7917,1.0712
7918,2.2439
7919,1.4794
7920,1.2612
7921,1.4753
7922,1.1666
7923,1.7594
7924,2.4048
7925,2.5169
7926,1.1619
7927,1.0073
7928,0.79008
7929,0.41126
7930,0.44823
7931,0.55916
7932,0.42215
7933,0.66059
7934,0.6302
7935,0.56881
7936,0.61892
7937,0.74303
7938,0.75467
7939,0.63933
7940,0.70278
7941,5.2365
7942,1.5169
7943,1.3604
7944,1.3158
7945,1.1466
7946,1.1521
7947,1.2407
7948,1.0884
7949,1.5011
7950,0.35722
7951,0.84469
7952,0.56946
7953,0.33657
7954,0.23113
7955,0.47421
7956,2.9281
7957,2.5464
7958,2.5077
7959,7.2136
7960,6.2735
7961,2.8268
7962,2.9829
7963,2.8418
7964,1.1385
7965,1.0717
7966,1.7736
7967,1.1046
7968,1.9697
7969,0.21489
7970,0.17768
7971,0.13603
7972,0.12425
7973,0.20988
7974,0.26807
7975,0.20473
7976,0.2079
7977,0.18035
7978,8.23E-02
7979,0.26189
7980,0.21401
7981,2.0575
7982,0.6096
7983,0.1044
7984,0.5715
7985,0.16338
7986,0.11721
7987,0.26152
7988,0.23236
7989,0.58302
7990,0.1212
7991,8.86E-02
7992,0.22927
7993,0.15858
7994,0.88019
7995,0.29285
7996,0.30505
7997,0.52342
7998,0.3837
7999,0.18103
8000,0.41574
8001,0.6173
8002,0.34747
8003,0.45089
8004,1.0985
8005,0.22949
8006,0.24507
8007,0.9075
8008,0.2869
8009,0.4941
8010,0.36896
8011,0.1556
8012,0.41515
8013,0.52921
8014,0.17169
8015,0.42774
8016,0.42066
8017,0.70315
8018,0.25581
8019,0.46995
8020,0.45202
8021,0.60121
8022,1.083
8023,4.486
8024,0.69142
8025,0.85849
8026,0.28992
8027,1.0071
8028,5.0428
8029,5.2989
8030,10.191
8031,4.9189
8032,8.535
8033,4.1659
8034,5.1331
8035,5.1861
8036,5.1124
8037,5.207
8038,5.0734
8039,5.3312
8040,0.71372
8041,0.72866
8042,4.5632
8043,0.77709
8044,0.83417
8045,0.7623
8046,0.30855
8047,0.29874
8048,0.15482
8049,0.57668
8050,0.98967
8051,1.0025
8052,0.591
8053,0.45874
8054,0.62844
8055,0.46146
8056,0.96325
8057,0.48843
8058,0.70917
8059,0.61304
8060,0.90782
8061,0.74534
8062,1.0303
8063,0.31256
8064,0.91725
8065,0.28168
8066,0.70868
8067,0.9371
8068,1.3453
8069,2.8009
8070,2.4902
8071,0.63954
8072,1.102
8073,1.2029
8074,1.337
8075,0.95803
8076,1.9141
8077,0.72027
8078,0.81417
8079,2.392
8080,0.66302
8081,0.98345
8082,1.0786
8083,0.86548
8084,1.0517
8085,1.4262
8086,0.90082
8087,1.0428
8088,0.10055
8089,5.12E-02
8090,6.28E-02
8091,7.28E-02
8092,0.1018
8093,3.87E-02
8094,5.73E-02
8095,9.58E-02
8096,0.25178
8097,0.31308
8098,0.34732
8099,0.46258
8100,0.53474
8101,16.747
8102,21.619
8103,15.463
8104,10.97
8105,11.198
8106,9.7045
8107,2.1489
8108,1.4879
8109,1.3033
8110,3.4722
8111,4.5816
8112,5.1377
8113,3.2806
8114,2.354
8115,2.5269
8116,1.8446
8117,8.8063
8118,6.1275
8119,7.5629
8120,7.558
8121,10.716
8122,2.7763
8123,3.6668
8124,0.67346
8125,4.4841
8126,10.257
8127,6.4343
8128,5.8459
8129,8.3067
8130,8.7109
8131,5.8536
8132,4.30E-02
8133,4.22E-02
8134,6.89E-02
8135,3.62E-02
8136,5.30E-02
8137,8.08E-02
8138,7.49E-02
8139,0.12015
8140,8.13E-02
8141,7.47E-02
8142,9.59E-02
8143,0.39656
8144,1.22E-02
8145,1.30E-02
8146,1.68E-02
8147,1.80E-02
8148,2.02E-02
8149,1.85E-02
8150,6.53E-03
8151,1.71E-02
8152,8.99E-02
8153,1.19E-02
8154,7.77E-03
8155,1.57E-02
8156,1.89E-02
8157,7.98E-03
8158,1.17E-02
8159,7.63E-03
8160,2.62E-02
8161,1.44E-02
8162,1.25E-02
8163,2.61E-02
8164,2.16E-02
8165,3.00E-02
8166,1.72E-02
8167,8.36E-02
8168,7.48E-02
8169,7.71E-02
8170,0.1392
8171,8.79E-02
8172,7.60E-02
8173,9.99E-02
8174,0.11418
8175,8.80E-02
8176,8.69E-02
8177,9.03E-02
8178,0.14641
8179,0.10365
8180,9.86E-02
8181,9.35E-02
8182,0.10845
8183,0.10457
8184,0.15311
8185,0.11602
8186,0.16254
8187,0.1563
8188,0.17854
8189,0.15059
8190,0.11969
8191,0.15966
8192,0.16198
8193,0.17616
8194,4.82E-02
8195,7.62E-02
8196,8.86E-02
8197,7.91E-02
8198,9.54E-02
8199,0.1063
8200,0.12952
8201,0.10444
8202,8.51E-02
8203,9.44E-02
8204,0.11269
8205,0.11003
8206,8.60E-02
8207,8.38E-02
8208,9.50E-02
8209,0.10643
8210,9.23E-02
8211,9.60E-02
8212,0.11464
8213,9.53E-02
8214,0.10224
8215,0.11324
8216,0.11579
8217,3.90E-02
8218,4.66E-02
8219,2.00E-02
8220,3.54E-02
8221,1.79E-02
8222,6.35E-02
8223,8.34E-02
8224,0.12653
8225,0.13057
8226,3.06E-02
8227,3.30E-02
8228,1.49E-02
8229,4.81E-02
8230,4.75E-02
8231,4.70E-02
8232,5.79E-02
8233,6.91E-02
8234,6.37E-02
8235,5.47E-02
8236,6.89E-02
8237,0.10947
8238,0.11804
8239,0.10811
8240,0.13036
8241,0.12463
8242,0.15175
8243,0.1599
8244,0.17226
8245,0.25
8246,0.1565
8247,0.20049
8248,0.19055
8249,0.18103
8250,0.25879
8251,0.20239
8252,0.20867
8253,0.24252
8254,0.16432
8255,0.16796
8256,0.14349
8257,0.16568
8258,0.16138
8259,6.45E-02
8260,5.08E-02
8261,0.202
8262,0.18381
8263,0.15587
8264,0.22964
8265,0.1585
8266,7.84E-02
8267,0.18735
8268,5.80E-02
8269,0.13343
8270,0.52275
8271,0.38825
8272,0.13283
8273,9.38E-02
8274,0.58819
8275,0.22685
8276,0.1348
8277,3.78E-02
8278,0.16214
8279,7.48E-02
8280,4.98E-02
8281,2.27E-02
8282,0.26434
8283,0.88611
8284,0.88484
8285,0.84141
8286,0.5157
8287,0.57807
8288,0.64256
8289,0.90444
8290,0.86498
8291,0.57886
8292,0.90725
8293,0.86089
8294,0.53519
8295,0.6081
8296,0.90677
8297,0.83345
8298,0.65406
8299,0.87537
8300,0.8718
8301,0.35641
8302,0.60826
8303,0.88651
8304,0.71942
8305,0.3706
8306,0.87523
8307,0.87672
8308,0.36856
8309,0.48415
8310,0.86905
8311,0.62756
8312,0.47544
8313,0.81398
8314,0.85627
8315,0.47743
8316,0.45885
8317,0.79959
8318,0.4418
8319,0.40189
8320,0.71206
8321,0.80891
8322,0.44569
8323,0.44682
8324,0.67866
8325,0.19027
8326,0.3184
8327,0.54914
8328,0.73708
8329,0.22492
8330,0.41319
8331,0.31834
8332,0.51185
8333,8.37E-02
8334,0.37325
8335,0.6466
8336,0.18978
8337,0.24993
8338,0.32148
8339,0.10485
8340,0.19473
8341,0.12916
8342,5.50E-02
8343,0.19638
8344,0.3952
8345,0.19354
8346,0.12562
8347,0.17184
8348,0.20926
8349,0.15618
8350,0.21595
8351,0.11231
8352,0.19388
8353,0.28547
8354,0.69111
8355,0.69851
8356,0.7748
8357,0.70556
8358,0.74502
8359,0.83055
8360,0.60482
8361,0.44768
8362,0.52164
8363,0.60687
8364,0.73266
8365,0.53666
8366,0.61911
8367,0.66492
8368,0.38646
8369,0.37162
8370,0.46241
8371,0.42395
8372,0.57236
8373,0.45548
8374,0.51531
8375,0.54108
8376,0.50527
8377,0.51173
8378,0.72196
8379,0.50099
8380,0.7805
8381,0.69967
8382,0.57707
8383,0.56405
8384,0.64545
8385,1.1096
8386,1.0615
8387,0.86741
8388,0.84673
8389,0.91433
8390,0.92426
8391,0.94829
8392,0.93042
8393,0.75953
8394,0.7932
8395,0.92038
8396,0.84161
8397,0.84603
8398,0.76918
8399,0.82175
8400,0.8665
8401,0.7481
8402,0.64974
8403,0.85853
8404,0.79139
8405,0.56633
8406,0.60652
8407,0.72332
8408,0.77067
8409,0.8061
8410,0.86078
8411,0.7876
8412,0.75847
8413,0.58649
8414,0.79276
8415,0.79212
8416,0.80297
8417,0.82113
8418,0.7622
8419,18.768
8420,7.0145
8421,13.67
8422,7.8462
8423,7.9791
8424,8.182
8425,7.5763
8426,15.567
8427,10.371
8428,10.646
8429,9.8237
8430,0.19398
8431,0.35588
8432,8.6675
8433,5.5476
8434,4.4794
8435,5.6288
8436,2.5939
8437,1.2831
8438,1.0551
8439,6.3618
8440,4.7396
8441,3.7114
8442,2.9146
8443,3.7111
8444,3.8715
8445,1.0726
8446,1.7325
8447,0.88638
8448,0.71079
8449,1.0522
8450,0.69193
8451,3.0972
8452,0.15353
8453,0.16677
8454,0.11842
8455,7.27E-02
8456,0.25109
8457,0.30394
8458,0.22546
8459,0.30902
8460,0.2528
8461,0.41897
8462,0.22242
8463,0.29051
8464,0.23421
8465,7.5163
8466,0.22427
8467,0.48356
8468,0.66702
8469,6.09E-02
8470,6.99E-02
8471,3.51E-02
8472,5.7405
8473,5.5889
8474,1.0563
8475,0.81145
8476,0.65499
8477,3.1313
8478,0.8557
8479,0.29595
8480,1.7532
8481,0.19313
8482,0.30084
8483,0.12747
8484,0.10653
8485,0.23955
8486,0.53414
8487,0.45415
8488,0.55108
8489,2.64E-02
8490,1.65E-02
8491,1.52E-02
8492,2.4211
8493,2.3485
8494,3.3943
8495,4.2419
8496,0.17744
8497,0.36405
8498,0.58841
8499,0.28013
8500,0.35298
8501,0.27427
8502,0.35825
8503,0.26466
8504,0.46835
8505,0.54118
8506,0.27833
8507,0.2756
8508,0.15362
8509,0.33767
8510,0.17312
8511,0.12789
8512,0.14488
8513,0.1897
8514,0.14776
8515,0.15349
8516,0.23404
8517,0.19277
8518,0.22398
8519,0.37057
8520,0.27346
8521,0.18416
8522,0.22268
8523,0.13612
8524,0.16565
8525,0.58707
8526,0.18321
8527,0.32375
8528,0.28529
8529,0.2995
8530,0.51269
8531,0.143
8532,0.37217
8533,0.34653
8534,0.26807
8535,0.6918
8536,1.1696
8537,1.5239
8538,0.94527
8539,1.8901
8540,1.1605
8541,0.75656
8542,0.57949
8543,0.7445
8544,0.86926
8545,0.36282
8546,1.8131
8547,1.2216
8548,3.526
8549,1.1664
8550,0.74277
8551,0.62683
8552,0.99282
8553,1.5993
8554,0.59556
8555,0.74324
8556,0.68486
8557,1.1328
8558,0.74886
8559,0.76346
8560,1.3132
8561,0.95461
8562,1.0929
8563,2.366
8564,1.3764
8565,0.48902
8566,0.47403
8567,0.49004
8568,0.59831
8569,1.4536
8570,1.5926
8571,1.6855
8572,0.57854
8573,1.373
8574,1.6926
8575,0.58208
8576,0.77473
8577,0.51955
8578,1.1326
8579,0.95066
8580,3.22E-02
8581,7.52E-02
8582,0.10086
8583,3.81E-02
8584,4.64E-02
8585,0.10839
8586,1.0932
8587,0.83801
8588,1.3436
8589,1.2811
8590,1.9507
8591,0.18291
8592,0.66455
8593,0.22483
8594,0.19234
8595,0.36932
8596,0.15256
8597,0.34445
8598,0.23909
8599,0.20332
8600,0.27286
8601,1.0175
8602,1.1038
8603,0.31312
8604,1.1014
8605,0.28073
8606,0.14198
8607,0.32235
8608,0.36944
8609,0.19554
8610,0.19694
8611,0.19129
8612,6.39E-02
8613,8.04E-02
8614,0.29752
8615,5.04E-02
8616,4.83E-02
8617,0.11583
8618,0.16419
8619,7.52E-02
8620,0.32858
8621,0.2172
8622,8.22E-02
8623,0.11026
8624,5.50E-02
8625,8.85E-02
8626,8.12E-02
8627,9.52E-02
8628,0.46637
8629,0.61011
8630,0.58077
8631,1.0853
8632,0.86078
8633,0.39467
8634,0.13467
8635,0.16211
8636,0.24536
8637,0.23731
8638,0.19559
8639,0.14719
8640,0.31408
8641,0.11828
8642,9.41E-02
8643,8.28E-02
8644,8.49E-02
8645,2.3279
8646,0.70038
8647,0.54218
8648,1.0326
8649,1.1627
8650,0.94924
8651,0.74049
8652,1.1095
8653,0.53729
8654,0.56056
8655,0.68985
8656,0.4665
8657,0.10425
8658,0.20654
8659,7.45E-02
8660,0.25591
8661,0.41632
8662,0.15482
8663,0.33219
8664,0.95495
8665,0.68514
8666,0.53573
8667,0.51168
8668,0.11523
8669,8.45E-02
8670,0.41533
8671,1.0203
8672,0.27411
8673,0.28466
8674,0.17713
8675,8.93E-02
8676,0.54706
8677,5.05E-02
8678,0.52294
8679,0.51398
8680,0.53205
8681,0.40619
8682,0.68373
8683,0.3989
8684,0.63395
8685,0.48838
8686,0.47785
8687,5.14E-02
8688,0.13953
8689,5.81E-02
8690,3.48E-02
8691,0.4592
8692,0.87228
8693,0.55678
8694,0.53333
8695,0.6103
8696,0.63841
8697,0.63415
8698,0.66322
8699,0.83878
8700,0.69326
8701,1.078
8702,1.457
8703,0.5855
8704,0.15838
8705,0.22585
8706,0.35509
8707,0.26148
8708,0.4897
8709,0.53478
8710,0.38955
8711,0.37882
8712,1.2927
8713,2.63E-02
8714,3.84E-02
8715,0.14975
8716,0.65956
8717,0.44893
8718,8.29E-02
8719,0.50726
8720,0.65376
8721,0.44429
8722,0.57953
8723,0.81174
8724,0.69049
8725,0.76364
8726,0.71695
8727,0.76
8728,0.4052
8729,0.42523
8730,0.25702
8731,0.30125
8732,0.2626
8733,0.37582
8734,0.43122
8735,0.43639
8736,0.25686
8737,0.27227
8738,9.41E-02
8739,0.10093
8740,0.12629
8741,0.14651
8742,0.18393
8743,0.12971
8744,1.2559
8745,0.78235
8746,0.98901
8747,0.73039
8748,0.61333
8749,0.93007
8750,0.84664
8751,0.80986
8752,1.2269
8753,0.84306
8754,1.718
8755,8.44E-02
8756,0.11052
8757,0.71414
8758,0.21213
8759,0.11086
8760,0.17408
8761,0.2615
8762,0.15556
8763,7.51E-02
8764,0.22832
8765,6.56E-02
8766,0.48833
8767,0.36323
8768,0.49496
8769,0.35512
8770,0.50246
8771,0.40537
8772,0.49077
8773,5.34E-02
8774,0.21013
8775,6.52E-02
8776,0.12772
8777,0.12626
8778,4.28E-02
8779,0.11901
8780,0.35085
8781,9.79E-02
8782,0.33857
8783,0.23889
8784,0.1427
8785,0.77589
8786,0.69068
8787,0.73514
8788,0.73516
8789,0.86385
8790,0.69043
8791,0.87402
8792,0.79788
8793,0.72905
8794,0.68786
8795,0.30593
8796,0.37534
8797,9.40E-02
8798,0.80635
8799,0.24211
8800,1.0821
8801,1.0362
8802,0.5857
8803,0.25445
8804,0.24297
8805,5.31E-02
8806,6.74E-02
8807,7.10E-02
8808,7.56E-02
8809,0.14197
8810,4.27E-02
8811,6.15E-02
8812,0.39814
8813,0.28828
8814,0.35109
8815,0.25021
8816,0.25819
8817,0.12735
8818,8.43E-02
8819,9.22E-02
8820,0.13188
8821,5.49E-02
8822,0.98539
8823,0.38385
8824,0.47043
8825,0.66315
8826,0.14104
8827,0.1328
8828,7.33E-02
8829,0.1383
8830,0.10814
8831,0.26613
8832,0.1878
8833,0.27127
8834,0.21484
8835,0.17813
8836,0.26028
8837,0.34414
8838,0.28744
8839,0.45419
8840,0.5268
8841,0.26418
8842,0.1362
8843,0.21506
8844,0.17523
8845,0.35082
8846,0.166
8847,0.18815
8848,0.15984
8849,0.11939
8850,0.13006
8851,6.34E-02
8852,8.37E-02
8853,0.12402
8854,0.2497
8855,0.20948
8856,0.20902
8857,0.17244
8858,0.18637
8859,0.29256
8860,0.25567
8861,0.45952
8862,0.20585
8863,0.18897
8864,0.20613
8865,0.18721
8866,0.36506
8867,0.24268
8868,0.17199
8869,0.18545
8870,0.35001
8871,0.1509
8872,0.35976
8873,0.17996
8874,0.19767
8875,0.17495
8876,0.14692
8877,0.136
8878,0.37564
8879,0.27469
8880,0.3129
8881,0.13372
8882,0.36319
8883,1.2358
8884,0.86392
8885,0.79481
8886,0.15563
8887,0.13349
8888,0.19525
8889,0.14128
8890,0.15341
8891,0.35914
8892,0.21828
8893,0.19172
8894,0.46372
8895,0.71812
8896,0.75872
8897,0.60402
8898,5.70E-02
8899,0.52638
8900,0.38357
8901,0.34418
8902,0.46756
8903,0.34695
8904,0.33927
8905,0.51698
8906,0.3119
8907,0.48145
8908,0.40004
8909,0.31169
8910,0.47069
8911,1.7769
8912,3.727
8913,0.10964
8914,1.1311
8915,0.95049
8916,1.2648
8917,1.2511
8918,0.61891
8919,0.20017
8920,0.15192
8921,0.4393
8922,0.39323
8923,0.46839
8924,0.36639
8925,0.33249
8926,0.52299
8927,0.42779
8928,0.64284
8929,0.45141
8930,0.3358
8931,0.21873
8932,0.11313
8933,0.15368
8934,0.43134
8935,0.42263
8936,1.2163
8937,0.75267
8938,0.66375
8939,0.50947
8940,0.56349
8941,0.55303
8942,0.17119
8943,4.88E-02
8944,0.75686
8945,0.64521
8946,0.45737
8947,0.20037
8948,1.2706
8949,0.38922
8950,0.30702
8951,1.0369
8952,0.46549
8953,0.88434
8954,0.11307
8955,0.1729
8956,0.40735
8957,0.41991
8958,1.8502
1,0.23758
2,2.3315
3,1.2067
4,3.4383
5,5.6521
6,8.0691
7,8.0852
8,0.36985
9,4.9491
10,16.893
11,22.24
12,18.138
13,9.2574
14,0.14646
15,1.0798
16,1.4836
17,1.1573
18,1.073
19,1.0564
20,0.71726
21,0.71127
22,0.59654
23,0.84011
24,0.42309
25,9.1694
26,3.4823
27,12.074
28,5.9973
29,3.7867
30,4.3794
31,2.3039
32,4.2981
33,0.58272
34,0.47426
35,0.67487
36,0.66064
37,0.79786
38,0.84545
39,0.61608
40,2.3856
41,1.2853
42,3.6124
43,7.0488
44,6.9038
45,8.0721
46,4.5637
47,4.595
48,1.635
49,2.8758
50,2.663
51,4.2223
52,3.7595
53,5.5565
54,1.0985
55,1.3301
56,1.6011
57,1.9696
58,1.9319
59,2.9536
60,1.6972
61,3.1934
62,2.7154
63,1.7177
64,1.8515
65,0.96978
66,0.77063
67,1.1809
68,0.68888
69,10.148
70,5.01
71,18.483
72,21.648
73,24.536
74,6.4848
75,23.819
76,16.688
77,18.101
78,4.4005
79,27.947
80,14.162
81,29.428
82,47.72
83,16.886
84,21.967
85,1.6545
86,17.908
87,19.749
88,3.2151
89,5.9477
90,7.6367
91,12.595
92,4.4872
93,1.8284
94,7.2495
95,9.8538
96,5.664
97,2.8523
98,3.5818
99,7.0124
100,4.0727
101,5.3172
102,5.7833
103,7.8562
104,0.98233
105,1.5374
106,1.7594
107,1.4468
108,1.7048
109,1.8661
110,3.7843
111,3.597
112,1.6541
113,3.8997
114,4.6776
115,4.6787
116,5.0002
117,0.61784
118,2.3719
119,1.7227
120,1.7918
121,1.7794
122,1.6225
123,19.572
124,14.411
125,13.278
126,55.882
127,5.9906
128,24.381
129,8.8021
130,31.27
131,8.2448
132,7.5912
133,3.1024
134,4.988
135,5.9604
136,5.68
137,6.6785
138,0.64779
139,2.4287
140,1.7245
141,1.4967
142,1.1981
143,1.4504
144,5.7612
145,2.4779
146,7.555
147,12.987
148,5.1092
149,11.296
150,11.52
151,7.2114
152,28.475
153,22.092
154,5.9975
155,7.8336
156,36.031
157,8.5879
158,22.643
159,26.233
160,1.0468
161,4.3499
162,1.1736
163,5.104
164,4.0561
165,3.0437
166,2.946
167,1.7429
168,5.3206
169,1.9843
170,4.0262
171,3.1764
172,3.6822
173,0.58918
174,0.1592
175,0.25818
176,3.4601
177,4.1874
178,2.3368
179,1.3684
180,2.3008
181,0.7808
182,2.2425
183,0.68943
184,0.72273
185,1.2605
186,1.3963
187,0.73804
188,4.4287
189,3.3022
190,2.9172
191,2.095
192,2.4719
193,2.888
194,5.5835
195,6.2636
196,4.2962
197,4.0243
198,3.7153
199,4.2627
200,4.5242
201,3.8528
202,7.9321
203,5.2511
204,3.9821
205,4.4697
206,2.7899
207,4.2884
208,6.1073
209,6.2459
210,4.1452
211,4.1221
212,3.3694
213,2.5297
214,0.61741
215,0.73573
216,1.7757
217,1.0103
218,10.402
219,2.9735
220,2.2859
221,4.0982
222,5.3409
223,2.4028
224,2.4953
225,2.9273
226,18.533
227,7.6101
228,11.193
229,11.647
230,10.105
231,7.742
232,10.557
233,7.8569
234,11.162
235,7.1271
236,17.081
237,15.488
238,13.89
239,14.056
240,13.25
241,13.327
242,13.468
243,13.151
244,11.148
245,11.347
246,12.654
247,12.767
248,8.7334
249,11.602
250,12.682
251,11.167
252,11.978
253,11.394
254,8.9975
255,3.9824
256,6.6547
257,5.5466
258,7.6523
259,6.362
260,0.53597
261,0.35167
262,0.2371
263,1.2687
264,0.81465
265,2.5643
266,0.50569
267,0.80316
268,0.99952
269,0.68947
270,2.7318
271,1.239
272,0.9479
273,1.1723
274,1.012
275,1.0787
276,1.4355
277,2.0627
278,0.78177
279,0.82153
280,0.84282
281,0.66174
282,0.90457
283,0.96806
284,1.438
285,0.38532
286,0.72525
287,2.0412
288,1.0588
289,1.7077
290,0.87693
291,0.44073
292,1.9266
293,0.59881
294,2.3724
295,0.37726
296,0.63009
297,0.59974
298,0.57733
299,0.75067
300,0.639
301,0.51864
302,2.014
303,1.2655
304,0.60935
305,0.50733
306,0.75054
307,0.53902
308,0.5831
309,0.75969
310,0.71084
311,1.3081
312,2.2897
313,0.32706
314,0.58215
315,0.57749
316,0.84738
317,0.84363
318,0.56814
319,0.57289
320,2.0901
321,2.3073
322,0.7255
323,1.0959
324,0.88034
325,1.0577
326,0.88528
327,0.88022
328,2.0464
329,0.39365
330,0.42775
331,0.43105
332,1.081
333,0.67227
334,5.4099
335,5.1498
336,5.3181
337,6.0514
338,5.1088
339,7.4735
340,6.404
341,6.2655
342,10.536
343,6.8729
344,7.3085
345,4.2495
346,5.7423
347,6.748
348,1.9376
349,3.6393
350,4.133
351,3.7865
352,3.5226
353,2.9036
354,3.2332
355,1.7477
356,10.034
357,4.1468
358,2.4899
359,3.5457
360,2.1485
361,8.5408
362,6.193
363,7.4849
364,6.1416
365,8.581
366,9.0797
367,6.759
368,8.6278
369,7.0219
370,9.5768
371,11.605
372,7.317
373,9.1788
374,4.8869
375,4.6607
376,6.1828
377,7.1062
378,4.9657
379,5.3569
380,9.0809
381,5.7843
382,4.1943
383,5.5206
384,2.841
385,1.9696
386,2.5183
387,3.8349
388,3.0066
389,2.1233
390,3.7928
391,3.3429
392,2.6271
393,2.333
394,3.1649
395,4.9491
396,2.5357
397,2.8849
398,3.5802
399,2.0662
400,2.1486
401,2.4607
402,3.0808
403,2.6946
404,3.4458
405,9.6713
406,16.454
407,2.5648
408,2.255
409,2.9942
410,17.153
411,2.4002
412,2.8197
413,3.041
414,3.2261
415,3.0634
416,8.9382
417,9.178
418,0.95166
419,1.2356
420,15.169
421,0.77589
422,2.9435
423,1.9464
424,3.5909
425,2.4529
426,2.1667
427,1.7809
428,2.3397
429,8.4853
430,2.3995
431,2.3172
432,4.2806
433,2.5097
434,4.1607
435,2.7329
436,3.1422
437,2.9111
438,2.8775
439,0.58987
440,1.0867
441,0.48469
442,0.45812
443,0.60843
444,0.50245
445,0.60132
446,0.51902
447,1.1228
448,1.0761
449,0.76713
450,0.77547
451,0.75651
452,1.0556
453,0.78418
454,1.0055
455,0.86412
456,0.87651
457,0.51986
458,0.6798
459,0.91273
460,0.69249
461,0.97303
462,0.76487
463,0.91821
464,1.069
465,0.82088
466,1.5265
467,1.4154
468,2.168
469,1.3858
470,4.9272
471,1.8322
472,2.2018
473,6.052
474,4.7672
475,5.5347
476,6.1711
477,2.4388
478,6.9462
479,4.5097
480,5.2934
481,4.4745
482,5.0554
483,5.0484
484,5.3795
485,4.3639
486,6.193
487,7.1051
488,5.4219
489,5.7129
490,6.3478
491,3.0638
492,3.509
493,3.2753
494,2.7955
495,5.7199
496,3.853
497,4.7112
498,4.6819
499,4.7762
500,2.027
501,1.4412
502,1.6757
503,1.5325
504,1.6548
505,1.1705
506,2.9026
507,3.2966
508,3.0876
509,2.1663
510,4.0969
511,2.5565
512,1.5166
513,1.4199
514,3.2808
515,2.7482
516,2.3868
517,3.4118
518,2.4804
519,2.8935
520,4.7169
521,3.6227
522,4.249
523,4.7067
524,3.1598
525,4.7481
526,3.9731
527,4.1571
528,4.5876
529,6.6781
530,4.8054
531,5.236
532,6.0394
533,5.0714
534,0.87234
535,0.80472
536,1.0274
537,0.67508
538,1.3416
539,0.73954
540,1.2637
541,0.69371
542,0.99181
543,1.3605
544,0.93625
545,1.713
546,1.6698
547,1.4696
548,1.6319
549,1.5994
550,1.5422
551,1.2976
552,1.784
553,1.8714
554,1.8045
555,1.6801
556,1.797
557,1.7834
558,1.6606
559,1.5062
560,1.1985
561,2.315
562,4.5554
563,3.3754
564,2.2248
565,4.0795
566,2.551
567,3.6588
568,2.8921
569,3.3571
570,3.1085
571,2.2317
572,4.2472
573,2.6792
574,2.0899
575,2.1253
576,2.0569
577,2.4704
578,1.4531
579,1.2792
580,1.3735
581,2.3
582,2.9506
583,0.4053
584,2.1789
585,1.3444
586,1.3959
587,0.94454
588,1.0547
589,0.684
590,1.285
591,0.68337
592,1.2585
593,0.66337
594,0.90911
595,0.86503
596,0.8973
597,0.75292
598,0.70915
599,9.9452
600,5.0382
601,12.038
602,10.736
603,5.9014
604,2.1435
605,9.2336
606,2.097
607,19.032
608,13.39
609,17.339
610,14.211
611,19.194
612,19.301
613,13.591
614,20.602
615,20.325
616,15.51
617,18.759
618,15.719
619,25.958
620,18.895
621,22.826
622,27.442
623,12.338
624,11.97
625,4.4414
626,3.9105
627,8.3426
628,2.8326
629,13.671
630,23.011
631,31.925
632,11.018
633,12.902
634,14.076
635,13.159
636,24.848
637,28.9
638,10.586
639,6.8495
640,13.043
641,22.997
642,7.8044
643,5.1052
644,16.952
645,22.236
646,23.036
647,8.1855
648,8.8362
649,9.9147
650,6.5905
651,2.5638
652,27.948
653,39.724
654,15.764
655,25.201
656,9.2655
657,8.5588
658,9.4148
659,8.6379
660,5.8063
661,14.543
662,9.4566
663,6.864
664,26.219
665,30.057
666,27.485
667,25.16
668,44.77
669,40.219
670,27.486
671,8.464
672,22.798
673,19.019
674,11.774
675,15.062
676,22.61
677,11.323
678,9.0044
679,22.55
680,2.211
681,2.4541
682,5.0343
683,1.9556
684,17.16
685,12.957
686,12.152
687,9.187
688,14.494
689,24.181
690,8.3497
691,12.854
692,11.834
693,20.487
694,3.5873
695,5.8926
696,1.1581
697,4.5579
698,2.7991
699,6.3823
700,4.9075
701,3.5811
702,4.8179
703,3.0259
704,3.9084
705,3.2829
706,8.7921
707,4.2475
708,8.4858
709,4.2666
710,16.259
711,14.442
712,8.3592
713,7.1378
714,6.0789
715,4.6614
716,11.892
717,7.0866
718,3.7723
719,5.5149
720,4.6399
721,2.4702
722,7.2414
723,3.8639
724,5.1555
725,2.4006
726,8.6908
727,11.554
728,3.733
729,5.001
730,4.5011
731,9.3044
732,7.9019
733,15.383
734,10.629
735,6.2632
736,5.7408
737,3.5613
738,9.4638
739,2.2371
740,4.0314
741,5.5617
742,11.505
743,4.1401
744,10.635
745,13.526
746,1.6735
747,2.3957
748,5.7466
749,14.559
750,5.7487
751,6.7002
752,5.9448
753,5.7199
754,3.7038
755,3.0957
756,3.452
757,3.7962
758,3.9999
759,5.4246
760,3.3475
761,3.6412
762,4.8066
763,5.5352
764,5.6627
765,2.1815
766,5.9963
767,6.549
768,7.0943
769,6.0568
770,5.8616
771,0.72824
772,1.1876
773,0.59495
774,0.98515
775,0.99884
776,1.8134
777,1.2293
778,1.9306
779,1.7567
780,1.6537
781,1.6501
782,1.7231
783,2.033
784,1.1478
785,1.4118
786,1.5693
787,1.3519
788,1.1056
789,1.428
790,1.6525
791,1.5388
792,1.4243
793,1.8128
794,1.7189
795,1.371
796,1.6312
797,0.94319
798,1.7316
799,4.3754
800,3.0488
801,2.1343
802,3.7411
803,4.6235
804,2.0526
805,4.3836
806,3.6941
807,5.2525
808,5.1623
809,5.8101
810,4.9427
811,0.61705
812,2.3562
813,1.6893
814,1.2916
815,1.6059
816,1.4633
817,1.5185
818,0.94055
819,8.9412
820,14.949
821,19.515
822,8.5045
823,4.6606
824,5.855
825,20.079
826,17.524
827,43.393
828,5.2064
829,19.824
830,5.3093
831,26.449
832,4.2992
833,8.7957
834,6.0922
835,14.571
836,14.816
837,16.179
838,11.804
839,4.2985
840,6.6434
841,13.289
842,3.1818
843,4.3955
844,4.4078
845,2.8408
846,3.0846
847,2.145
848,3.2822
849,2.4119
850,1.9921
851,4.2052
852,5.3509
853,5.71
854,5.592
855,0.91035
856,1.2578
857,2.6011
858,1.9366
859,1.1937
860,1.5452
861,1.8342
862,1.5672
863,1.3709
864,0.81032
865,2.2098
866,1.6127
867,1.0962
868,0.7408
869,1.6216
870,5.2954
871,1.7514
872,9.3019
873,15.613
874,11.78
875,19.005
876,5.5607
877,16.807
878,12.675
879,21.431
880,8.8821
881,16.008
882,7.1196
883,3.9579
884,4.6499
885,3.4643
886,5.4585
887,12.558
888,3.2871
889,12.895
890,7.2439
891,15.876
892,6.2991
893,18.149
894,7.6396
895,5.0494
896,12.256
897,5.4104
898,7.2155
899,2.7953
900,31.041
901,24.193
902,14.742
903,13.406
904,6.1171
905,2.9787
906,2.2512
907,3.099
908,3.2537
909,16.582
910,28.931
911,11.061
912,11.437
913,11.874
914,3.2574
915,2.8075
916,3.0969
917,3.2074
918,2.8908
919,1.7136
920,3.849
921,3.1765
922,2.4038
923,2.4685
924,2.5172
2135,0.70296
2136,0.49513
2137,2.0016
2138,3.1498
2139,3.7136
2140,2.3884
2141,2.8256
2142,1.1545
2143,3.3964
2144,4.3999
2145,6.395
2146,6.0081
2147,2.6141
2148,0.47813
2149,0.84371
2150,1.3452
2151,0.78631
2152,1.249
2153,2.0296
2154,0.76955
2155,0.88503
2156,0.49439
2157,0.43438
2158,0.79005
2159,4.068
2160,2.7784
2161,4.8204
2162,3.6305
2163,4.3566
2164,1.7106
2165,2.7709
2166,1.322
2167,2.1589
2168,2.57
2169,1.8283
2170,1.0663
2171,0.19106
2172,0.95338
2173,1.1059
2174,0.57394
2175,2.3039
2176,0.79843
2177,0.56178
2178,0.46964
2179,0.22886
2180,0.91905
2181,1.816
2182,0.78531
2183,2.0303
2184,3.2805
2185,4.7252
2186,3.7846
2187,1.7412
2188,0.23901
2189,0.94402
2190,10.466
2191,6.189
2192,2.8616
2193,1.2262
2194,0.56731
2195,3.2189
2196,1.8676
2197,2.7491
2198,4.2744
2199,6.7934
2200,3.2234
2201,1.9628
2202,0.58888
2203,1.4672
2204,7.6803
2205,2.7202
2206,13.328
2207,11.813
2208,7.8162
2209,6.6661
2210,7.2164
2211,10.745
2212,1.6397
2213,29.135
2214,25.804
2215,19.988
2216,18.716
2217,43.579
2218,31.416
2219,18.676
2220,0.54074
2221,10.085
2222,7.2171
2223,6.9011
2224,4.186
2225,4.5392
2226,1.8919
2227,24.938
2228,18.159
2229,24.657
2230,28.608
2231,10.997
2232,55.314
2233,4.8854
2234,6.3842
2235,7.7069
2236,5.157
2237,5.6113
2238,1.1079
2239,1.2304
2240,1.9014
2241,2.1544
2242,1.9166
2243,1.5862
2244,3.9732
2245,26.736
2246,33.078
2247,33.184
2248,31.793
2249,6.5844
2250,9.0365
2251,17.075
2252,7.821
2253,39.971
2254,52.051
2255,9.4842
2256,7.4309
2257,4.8415
2258,3.9043
2259,4.8687
2260,3.5664
2261,1.5547
2262,3.1474
2263,1.684
2264,2.1553
2265,2.0031
2266,1.8553
2267,2.1072
2268,0.872
2269,4.0143
2270,3.7716
2271,3.8847
2272,0.95252
2273,6.0841
2274,7.2044
2275,8.9893
2276,6.3121
2277,3.5608
2278,29.379
2279,16.526
2280,11.426
2281,5.5502
2282,5.3151
2283,5.9246
2284,4.5736
2285,3.5397
2286,7.8454
2287,3.0139
2288,9.3596
2289,12.111
2290,8.1325
2291,16.256
2292,17.96
2293,6.777
2294,6.7772
2295,6.3037
2296,6.089
2297,4.8065
2298,2.9951
2299,0.735
2300,1.6006
2301,1.2501
2302,1.6786
2303,1.8068
2304,2.3379
2305,4.3122
2306,46.414
2307,9.0249
2308,44.959
2309,39.252
2310,31.829
2311,52.136
2312,11.829
2313,38.534
2314,8.6138
2315,12.848
2316,4.2002
2317,14.186
2318,10.856
2319,10.092
2320,16.391
2321,5.3163
2322,12.393
2323,45.713
2324,49.226
2325,8.3594
2326,23.903
2327,7.2337
2328,13.385
2329,5.6514
2330,7.1914
2331,11.082
2332,15.629
2333,31.458
2334,10.129
2335,12.111
2336,5.8506
2337,20.142
2338,23.135
2339,7.2816
2340,7.2588
2341,4.5257
2342,5.2468
2343,2.9415
2344,3.6151
2345,5.64
2346,6.5026
2347,7.2354
2348,3.2082
2349,2.8096
2350,1.7359
2351,5.0386
2352,4.2637
2353,6.7069
2354,6.3836
2355,1.5101
2356,3.9551
2357,2.6412
2358,1.0212
2359,5.1432
2360,1.2237
2361,3.019
2362,4.3441
2363,3.7044
2364,1.8285
2365,4.6851
2366,1.6358
2367,4.4692
2368,2.3091
2369,2.0708
2370,4.0492
2371,3.2332
2372,3.7364
2373,4.6081
2374,2.9276
2375,2.2554
2376,2.4464
2377,1.8007
2378,3.1958
2379,2.7912
2380,4.0601
2381,1.4346
2382,1.6747
2383,4.1706
2384,2.5194
2385,1.5766
2386,2.5257
2387,0.87985
2388,2.5597
2389,2.4791
2390,3.0926
2391,0.91738
2392,2.9998
2393,2.4446
2394,3.4799
2395,7.5452
2396,3.3325
2397,1.6168
2398,1.3636
2399,1.0398
2400,3.3886
2401,5.7405
2402,4.6339
2403,4.1701
2404,3.2846
2405,3.0998
2406,6.2701
2407,4.5765
2408,3.5236
2409,3.6533
2410,5.7822
2411,1.6457
2412,2.9216
2413,4.7072
2414,7.9379
2415,1.9959
2416,1.8029
2417,3.5321
2418,2.6728
2419,1.6059
2420,4.7121
2421,2.1852
2422,5.4706
2423,4.3793
2424,2.7646
2425,1.2759
2426,1.3263
2427,0.72148
2428,0.69891
2429,0.2806
2430,0.75564
2431,0.96109
2432,1.3871
2433,1.089
2434,0.69511
2435,2.4914
2436,1.2762
2437,1.5834
2438,2.1097
2439,1.1688
2440,1.0671
2441,1.3651
2442,2.0197
2443,2.1585
2444,3.3771
2445,2.2294
2446,2.2308
2447,2.1835
2448,2.2198
2449,2.3624
2450,2.2491
2451,2.7461
2452,3.0786
2453,2.5878
2454,2.0723
2455,2.5588
2456,2.3604
2457,2.987
2458,1.9515
2459,2.4845
2460,2.455
2461,2.1366
2462,2.5849
2463,2.9111
2464,2.1226
2465,2.584
2466,1.5068
2467,2.0378
2468,2.3276
2469,1.9521
2470,1.4744
2471,1.8628
2472,3.1123
2473,1.4827
2474,1.4566
2475,1.7402
2476,3.4543
2477,1.9346
2478,2.6156
2479,2.3009
2480,2.1278
2481,1.3748
2482,1.0283
2483,3.7771
2484,2.0642
2485,1.8942
2486,2.5601
2487,2.0193
2488,1.8109
2489,1.869
2490,1.709
2491,4.3737
2492,3.3725
2493,2.7609
2494,3.4594
2495,4.0446
2496,4.7402
2497,2.3123
2498,2.0473
2499,5.5687
2500,4.1528
2501,4.2917
2502,4.8323
2503,3.7553
2504,4.4931
2505,4.1553
2506,4.5698
2507,4.8723
2508,3.8874
2509,5.0784
2510,4.2637
2511,2.7669
2512,4.4106
2513,4.5248
2514,4.0607
2515,5.357
2516,0.99284
2517,1.0918
2518,1.8167
2519,3.1513
2520,1.2987
2521,0.57079
2522,0.60774
2523,0.25998
2524,0.64793
2525,0.38445
2526,0.2073
2527,0.78361
2528,0.63857
2529,0.97521
2530,0.5505
2531,0.49662
2532,0.31954
2533,0.67833
2534,0.7071
2535,0.97859
2536,1.159
2537,0.57302
2538,1.0537
2539,0.45979
2540,1.2238
2541,0.72664
2542,0.82229
2543,1.4421
2544,0.60798
2545,1.7133
2546,1.4377
2547,0.65488
2548,2.1718
2549,1.1454
2550,0.67773
2551,0.9988
2552,1.1242
2553,0.87721
2554,1.5576
2555,1.7208
2556,1.9973
2557,1.2661
2558,2.1234
2559,1.5086
2560,1.4865
2561,1.0553
2562,1.9385
2563,1.3549
2564,0.84383
2565,1.5284
2566,1.4024
2567,1.7647
2568,2.5991
2569,2.1162
2570,1.9765
2571,0.82523
2572,0.8163
2573,0.60173
2574,0.28345
2575,0.69068
2576,0.62709
2577,0.82477
2578,0.65318
2579,1.2855
2580,0.81772
2581,0.66313
2582,1.3374
2583,1.1263
2584,0.65998
2585,0.74379
2586,0.31845
2587,1.3321
2588,1.3603
2589,0.58876
2590,1.1111
2591,1.02
2592,1.3974
2593,1.248
2594,0.57575
2595,0.83041
2596,0.43245
2597,1.157
2598,0.94442
2599,1.6679
2600,0.72198
2601,0.79438
2602,0.56429
2603,1.0352
2604,0.94476
2605,5.0879
2606,4.4124
2607,3.4157
2608,5.3541
2609,4.5447
2610,3.5844
2611,3.1159
2612,3.4628
2613,3.475
2614,3.2049
2615,3.5632
2616,3.4646
2617,3.725
2618,2.8288
2619,2.264
2620,3.6058
2621,2.1832
2622,1.906
2623,1.6374
2624,2.5063
2625,2.3858
2626,2.421
2627,2.1767
2628,3.4541
2629,4.4017
2630,6.2038
2631,4.7597
2632,4.1567
2633,4.2075
2634,5.6159
2635,3.6151
2636,3.8646
2637,3.3863
2638,4.6926
2639,4.3729
2640,3.6279
2641,4.3888
2642,4.3863
2643,4.2003
2644,3.6219
2645,4.0934
2646,4.7183
2647,4.6276
2648,3.8429
2649,5.4389
2650,4.8632
2651,4.3975
2652,3.4997
2653,5.1756
2654,6.1846
2655,5.2171
2656,2.8204
2657,4.1382
2658,2.7665
2659,3.8213
2660,5.5827
2661,1.7729
2662,1.5432
2663,1.7706
2664,1.743
2665,1.8647
2666,1.1808
2667,1.876
2668,1.9054
2669,2.0194
2670,3.3128
2671,2.0841
2672,2.8378
2673,3.4414
2674,3.4888
2675,2.6009
2676,2.3991
2677,1.9764
2678,1.9773
2679,1.2041
2680,1.4529
2681,0.96522
2682,1.4268
2683,3.3288
2684,0.63788
2685,1.7136
2686,1.3142
2687,0.79801
2688,0.78606
2689,0.90821
2690,0.98444
2691,0.97916
2692,2.3407
2693,2.0907
2694,1.8159
2695,2.1064
2696,2.4707
2697,1.736
2698,1.0515
2699,0.62659
2700,1.1605
2701,1.7535
2702,2.4763
2703,2.6169
2704,1.5945
2705,2.1846
2706,2.2425
2707,2.2689
2708,2.6004
2709,1.8053
2710,1.9865
2711,1.4322
2712,2.8285
2713,4.0363
2714,3.7581
2715,1.6617
2716,1.8169
2717,1.7877
2718,3.5704
2719,1.669
2720,1.7636
2721,1.3512
2722,1.6003
2723,2.8263
2724,3.3054
2725,1.0611
2726,1.4241
2727,0.86276
2728,0.80518
2729,3.6908
2730,2.9844
2731,1.0124
2732,2.4766
2733,2.3889
2734,1.5662
2735,1.0511
2736,1.3181
2737,0.52751
2738,0.32455
2739,0.26035
2740,0.74525
2741,0.49856
2742,0.80671
2743,0.60322
2744,1.3722
2745,1.187
2746,1.1588
2747,1.7921
2748,0.66226
2749,1.4197
2750,1.0025
2751,0.95324
2752,0.63633
2753,1.1385
2754,0.64419
2755,0.35339
2756,0.82854
2757,0.47652
2758,0.66839
2759,0.80948
2760,0.90114
2761,0.47546
2762,0.91905
2763,0.327
2764,1.2101
2765,0.72361
2766,1.2629
2767,1.527
2768,1.1066
2769,2.1029
2770,1.3442
2771,1.0993
2772,0.32081
2773,0.72316
2774,1.1129
2775,1.0735
2776,1.1713
2777,2.6027
2778,1.3658
2779,1.3054
2780,1.391
2781,3.5563
2782,3.1192
2783,1.6896
2784,4.0271
2785,1.9631
2786,2.2935
2787,1.637
2788,2.3011
2789,1.6833
2790,1.5929
2791,2.3977
2792,2.1772
2793,0.786
2794,0.3921
2795,0.8755
2796,1.1795
2797,1.3382
2798,5.4061
2799,6.907
2800,6.554
2801,4.445
2802,2.747
2803,4.6123
2804,5.7934
2805,1.018
2806,3.3263
2807,4.3593
2808,4.2354
2809,1.9506
2810,1.3349
2811,0.65535
2812,2.0107
2813,4.4113
2814,2.4774
2815,0.81397
2816,0.81182
2817,1.1921
2818,1.4296
2819,0.85822
2820,0.34505
2821,2.5286
2822,1.4257
2823,0.65124
2824,0.90201
2825,2.8537
2826,3.2796
2827,3.4462
2828,5.9627
2829,2.9371
2830,2.5285
2831,1.6382
2832,2.7959
2833,3.4936
2834,1.9387
2835,2.6232
2836,2.7039
2837,1.943
2838,3.5016
2839,7.3934
2840,2.4835
2841,2.0005
2842,2.6794
2843,2.8229
2844,3.366
2845,6.5584
2846,3.726
2847,3.6406
2848,4.844
2849,7.7513
2850,3.4953
2851,7.48
2852,3.0196
2853,3.1349
2854,2.0748
2855,1.8348
2856,1.9439
2857,1.2752
2858,2.526
2859,6.5524
2860,1.9467
2861,1.2087
2862,1.6327
2863,0.60717
2864,1.0346
2865,1.3982
2866,1.3795
2867,4.0897
2868,3.6075
2869,1.8867
2870,18.928
2871,3.1895
2872,5.241
2873,5.9619
2874,4.6144
2875,3.939
2876,1.3678
2877,4.1735
2878,3.1374
2879,2.7594
2880,1.8718
2881,1.879
2882,2.0425
2883,2.0622
2884,19.351
2885,5.9455
2886,8.5262
2887,12.231
2888,6.4051
2889,8.462
2890,8.1908
2891,7.3421
2892,17.71
2893,20.213
2894,10.62
2895,7.9023
2896,5.2711
2897,7.4192
2898,6.2051
2899,5.7707
2900,11.443
2901,7.4064
2902,8.7493
2903,8.5348
2904,6.9882
2905,6.7243
2906,4.0601
2907,5.076
2908,6.7752
2909,7.4045
2910,11.041
2911,6.2508
2912,5.6885
2913,11.382
2914,7.3887
2915,14.208
2916,5.337
2917,2.7273
2918,6.5332
2919,5.2775
2920,4.8148
2921,20.122
2922,17.754
2923,7.8493
2924,11.82
2925,7.5751
2926,7.0134
2927,6.1129
2928,5.83
2929,5.3558
2930,3.7861
2931,2.7041
2932,1.5119
2933,1.6741
2934,15.936
2935,30.209
2936,33.661
2937,11.991
2938,13.025
2939,15.003
2940,11.997
2941,27.166
2942,38.138
2943,12.271
2944,13.71
2945,13.46
2946,12.556
2947,13.244
2948,23.591
2949,8.9496
2950,12.209
2951,11.911
2952,13.588
2953,14.65
2954,9.7137
2955,11.049
2956,12.499
2957,11.839
2958,27.595
2959,26.569
2960,42.545
2961,25.852
2962,19.218
2963,16.381
2964,38.706
2965,34.794
2966,16.269
2967,14.032
2968,17.551
2969,21.542
2970,11.428
2971,9.6722
2972,22.973
2973,11.144
2974,10.709
2975,10.446
2976,11.233
2977,10.947
2978,8.8961
2979,2.9112
2980,3.3508
2981,1.1213
2982,0.38901
2983,0.90996
2984,20.878
2985,7.8095
2986,8.3388
2987,25.649
2988,7.2561
2989,5.6119
2990,8.4989
2991,5.8895
2992,8.08
2993,6.9893
2994,11.835
2995,3.596
2996,6.3156
2997,6.2954
2998,6.5198
2999,3.6216
3000,4.8838
3001,5.0672
3002,4.7303
3003,4.9632
3004,14.313
3005,3.9511
3006,6.2304
3007,5.6597
3008,8.7657
3009,4.7884
3010,4.7367
3011,4.6199
3012,5.371
3013,5.1841
3014,13.57
3015,2.1221
3016,4.0259
3017,3.4481
3018,8.0733
3019,3.229
3020,2.412
3021,7.5784
3022,2.2385
3023,3.94
3024,10.467
3025,5.8409
3026,1.9891
3027,2.3993
3028,3.3107
3029,2.363
3030,2.8469
3031,4.8013
3032,4.2248
3033,2.3634
3034,1.1125
3035,1.1195
3036,1.689
3037,2.0295
3038,12.446
3039,16.868
3040,34.624
3041,14.532
3042,16.369
3043,12.844
3044,15.78
3045,11.635
3046,13.103
3047,14.829
3048,9.7896
3049,11.3
3050,12.949
3051,18.242
3052,14.86
3053,15.467
3054,15.133
3055,14.285
3056,16.277
3057,21.496
3058,15.165
3059,15.991
3060,6.784
3061,13.201
3062,13.969
3063,6.453
3064,5.0138
3065,6.6386
3066,31.979
3067,35.927
3068,51.65
3069,30.439
3070,26.133
3071,3.0484
3072,4.3145
3073,3.6473
3074,4.4816
3075,6.5036
3076,4.9966
3077,5.4543
3078,6.9584
3079,6.8654
3080,5.5337
3081,4.3499
3082,5.6521
3083,5.2758
3084,2.3188
3085,3.7702
3086,5.0014
3087,3.8111
3088,5.5654
3089,4.0362
3090,4.3111
3091,0.81805
3092,0.85252
3093,1.3406
3094,1.6172
3095,1.9064
3096,0.84959
3097,0.90369
3098,2.4289
3099,1.8144
3100,2.0495
3101,1.9876
3102,1.8454
3103,1.5837
3104,1.8084
3105,2.3514
3106,1.5349
3107,1.707
3108,2.4769
3109,2.3842
3110,3.5941
3111,1.7052
3112,1.5327
3113,1.6829
3114,1.5307
3115,2.6731
3116,3.0302
3117,3.8897
3118,2.329
3119,3.5713
3120,2.912
3121,13.821
3122,36.028
3123,17.707
3124,14.621
3125,14.304
3126,14.039
3127,38.002
3128,35.669
3129,20.361
3130,16.288
3131,17.286
3132,31.783
3133,42.095
3134,20.072
3135,16.55
3136,16.522
3137,19.717
3138,35.058
3139,10.814
3140,14.4
3141,16.433
3142,5.0038
3143,19.983
3144,6.2237
3145,7.9532
3146,3.7197
3147,3.3048
3148,3.3411
3149,4.4688
3150,26.439
3151,6.3702
3152,8.353
3153,6.288
3154,5.7497
3155,5.0672
3156,5.3764
3157,24.853
3158,13.837
3159,13.032
3160,3.0796
3161,9.4056
3162,9.1935
3163,10.608
3164,6.2454
3165,23.093
3166,11.882
3167,6.4364
3168,4.3219
3169,3.988
3170,4.8249
3171,4.7856
3172,19.649
3173,25.995
3174,39.629
3175,25.439
3176,49.906
3177,37.572
3178,32.299
3179,25.623
3180,27.396
3181,28.613
3182,8.1429
3183,11.119
3184,13.539
3185,7.3072
3186,5.2692
3187,6.8106
3188,5.8368
3189,5.7019
3190,23.293
3191,6.3498
3192,8.9101
3193,7.0791
3194,5.6447
3195,6.4168
3196,5.6273
3197,3.7796
3198,5.768
3199,4.8613
3200,4.4915
3201,3.7707
3202,4.4414
3203,3.9461
3204,4.6973
3205,4.9983
3206,3.9018
3207,4.2654
3208,2.906
3209,3.7716
3210,4.0117
3211,3.9295
3212,5.5251
3213,5.4025
3214,5.5841
3215,5.3924
3216,1.83
3217,3.8137
3218,5.1883
3219,4.0723
3220,4.101
3221,2.8401
3222,3.8773
3223,2.6495
3224,3.4866
3225,1.5547
3226,1.9184
3227,2.8184
3228,1.4796
3229,2.3459
3230,2.0568
3231,1.3105
3232,1.6345
3233,1.7793
3234,4.6753
3235,3.6545
3236,3.7309
3237,2.7412
3238,2.6379
3239,3.0319
3240,3.1393
3241,1.0262
3242,2.0616
3243,1.6336
3244,0.80914
3245,1.6
3246,2.0857
3247,1.2165
3248,2.2442
3249,1.6543
3250,1.0567
3251,2.7282
3252,2.6536
3253,1.7548
3254,1.6799
3255,1.5145
3256,3.7465
3257,3.2471
3258,1.8083
3259,1.8315
3260,1.514
3261,1.2494
3262,1.5289
3263,2.5154
3264,2.073
3265,2.1431
3266,3.109
3267,2.4085
3268,2.8692
3269,2.7824
3270,2.2501
3271,2.3791
3272,1.7157
3273,0.77841
3274,1.0012
3275,1.0251
3276,1.5474
3277,1.0013
3278,1.0794
3279,1.0254
3280,4.7642
3281,3.3304
3282,2.607
3283,2.5161
3284,4.0282
3285,4.244
3286,2.8357
3287,3.1965
3288,2.6769
3289,6.5876
3290,7.7465
3291,2.1255
3292,2.775
3293,1.9173
3294,1.5584
3295,3.4111
3296,7.144
3297,9.3103
3298,5.1055
3299,3.2521
3300,3.339
3301,11.404
3302,6.73
3303,6.7204
3304,6.7679
3305,5.6234
3306,10.332
3307,5.4006
3308,6.4144
3309,6.9886
3310,5.501
3311,4.8311
3312,10.024
3313,4.5769
3314,4.9354
3315,3.3205
3316,3.0496
3317,3.4894
3318,6.2161
3319,5.7569
3320,2.9452
3321,2.266
3322,2.052
3323,13.499
3324,17.592
3325,17.712
3326,15.365
3327,5.0463
3328,9.0954
3329,10.436
3330,8.5262
3331,7.9837
3332,9.354
3333,4.752
3334,4.1493
3335,3.0327
3336,2.8507
3337,4.9436
3338,2.4556
3339,2.9869
3340,4.344
3341,8.1235
3342,4.2047
3343,4.8615
3344,6.161
3345,3.5919
3346,2.6834
3347,3.7122
3348,9.3288
3349,2.5259
3350,1.9596
3351,2.8784
3352,3.1073
3353,2.3661
3354,6.4834
3355,6.537
3356,3.4941
3357,3.9398
3358,4.5419
3359,4.7609
3360,12.758
3361,2.5884
3362,2.1139
3363,1.733
3364,3.8649
3365,2.6973
3366,7.7499
3367,7.2274
3368,6.4077
3369,6.3549
3370,6.1806
3371,8.9008
3372,6.9181
3373,8.2418
3374,5.3925
3375,4.1934
3376,4.9491
3377,5.8665
3378,7.7822
3379,8.802
3380,9.3629
3381,10.911
3382,18.449
3383,9.3649
3384,5.9918
3385,5.4965
3386,3.9528
3387,4.1835
3388,4.0681
3389,5.2822
3390,5.0154
3391,5.4703
3392,3.6555
3393,2.9514
3394,4.7305
3395,4.2839
3396,2.1092
3397,2.2028
3398,4.0536
3399,4.19
3400,3.5051
3401,4.1445
3402,3.633
3403,2.7174
3404,1.0652
3405,1.062
3406,1.549
3407,1.8557
3408,2.1572
3409,1.3016
3410,2.2097
3411,2.5433
3412,2.1202
3413,1.6757
3414,3.4585
3415,1.9162
3416,1.5701
3417,1.6951
3418,4.2251
3419,3.1255
3420,25.91
3421,22.289
3422,25.056
3423,7.5816
3424,5.2683
3425,24.454
3426,25.126
3427,19.832
3428,19.351
3429,20.579
3430,20.313
3431,21.563
3432,12.496
3433,14.573
3434,19.072
3435,16.344
3436,16.439
3437,30.808
3438,21.226
3439,25.766
3440,10.452
3441,13.831
3442,18.226
3443,19.777
3444,6.2374
3445,5.114
3446,4.18
3447,3.906
3448,5.0824
3449,6.8816
3450,6.0299
3451,7.0262
3452,4.3531
3453,3.9081
3454,3.1481
3455,3.2909
3456,4.9247
3457,8.0415
3458,6.9731
3459,6.6463
3460,6.9494
3461,5.2823
3462,6.4313
3463,6.1819
3464,6.1383
3465,6.0345
3466,7.7816
3467,6.2651
3468,6.4248
3469,7.7176
3470,5.8848
3471,6.8149
3472,8.2026
3473,7.8472
3474,3.6175
3475,8.5647
3476,9.0723
3477,3.4841
3478,3.2865
3479,3.0995
3480,3.1836
3481,3.3929
3482,3.6158
3483,13.098
3484,6.7519
3485,23.255
3486,24.956
3487,26.433
3488,30.589
3489,27.807
3490,15.49
3491,5.407
3492,11.396
3493,13.489
3494,12.765
3495,2.3604
3496,6.6615
3497,3.8761
3498,3.6231
3499,4.1459
3500,3.7314
3501,4.121
3502,4.1254
3503,4.6742
3504,14.456
3505,9.0431
3506,8.757
3507,7.4013
3508,6.1085
3509,5.861
3510,4.7561
3511,8.0197
3512,6.4548
3513,4.3752
3514,4.6571
3515,5.2285
3516,5.056
3517,4.9911
3518,4.5204
3519,8.9442
3520,6.2958
3521,6.4197
3522,7.4511
3523,6.6415
3524,8.2626
3525,8.5561
3526,10.398
3527,8.428
3528,8.7889
3529,9.1547
3530,18.276
3531,18.16
3532,16.561
3533,15.148
3534,4.4189
3535,14.948
3536,5.2022
3537,4.5061
3538,5.0066
3539,4.533
3540,5.0453
3541,4.5086
3542,17.363
3543,7.3404
3544,6.4081
3545,7.3154
3546,6.3705
3547,6.16
3548,6.9773
3549,5.4487
3550,3.5241
3551,2.8345
3552,2.7794
3553,4.19
3554,2.745
3555,11.106
3556,9.5108
3557,9.2358
3558,9.7248
3559,9.5369
3560,8.9042
3561,13.682
3562,12.837
3563,12.787
3564,12.703
3565,12.581
3566,12.027
3567,12.581
3568,11.991
3569,5.1378
3570,5.2387
3571,5.5035
3572,5.1031
3573,3.9469
3574,5.4341
3575,5.2838
3576,4.4491
3577,4.797
3578,4.7727
3579,5.0163
3580,6.3066
3581,5.7735
3582,4.7641
3583,4.3549
3584,5.1206
3585,4.7459
3586,4.9088
3587,6.7641
3588,4.9375
3589,4.7686
3590,3.4554
3591,4.9052
3592,3.8203
3593,3.5796
3594,3.1259
3595,2.9803
3596,3.2918
3597,3.4031
3598,3.8361
3599,3.4446
3600,3.0321
3601,3.2104
3602,2.528
3603,2.8314
3604,3.0703
3605,2.5865
3606,3.1328
3607,3.6869
3608,2.2493
3609,2.0124
3610,1.8199
3611,2.7548
3612,4.1602
3613,2.345
3614,2.8121
3615,3.5808
3616,3.4154
3617,3.6166
3618,4.0891
3619,3.6498
3620,3.0119
3621,3.4557
3622,3.9416
3623,3.8014
3624,3.3114
3625,5.6403
3626,5.0136
3627,4.5322
3628,4.1055
3629,4.6914
3630,5.102
3631,5.6391
3632,5.6002
3633,2.9629
3634,1.9451
3635,2.78
3636,2.2518
3637,1.0607
3638,1.4246
3639,1.1207
3640,4.4669
3641,4.0086
3642,3.4389
3643,3.0043
3644,3.3248
3645,3.1822
3646,3.5812
3647,5.3004
3648,2.6202
3649,2.3448
3650,2.2021
3651,2.4917
3652,1.6711
3653,2.6171
3654,6.4171
3655,3.7116
3656,3.496
3657,3.7052
3658,5.0455
3659,1.94
3660,1.6063
3661,3.6798
3662,2.5487
3663,2.7627
3664,1.9003
3665,2.0936
3666,1.8395
3667,0.90897
3668,1.2897
3669,1.2819
3670,4.174
3671,3.2554
3672,4.0727
3673,4.0592
3674,1.7188
3675,2.236
3676,3.2513
3677,2.0527
3678,3.1579
3679,4.595
3680,3.6753
3681,2.9376
3682,3.9243
3683,2.5557
3684,4.1493
3685,4.1897
3686,4.6866
3687,4.1889
3688,3.2227
3689,4.2395
3690,3.1175
3691,2.9802
3692,2.2553
3693,3.3128
3694,3.4511
3695,4.4636
3696,3.8798
3697,2.9443
3698,2.2018
3699,2.2974
3700,4.1598
3701,5.8831
3702,3.0792
3703,2.1412
3704,4.2213
3705,1.7871
3706,1.8324
3707,2.3837
3708,2.3211
3709,3.3047
3710,5.6955
3711,5.1488
3712,2.5363
3713,1.9728
3714,3.3923
3715,2.7405
3716,3.4098
3717,3.3226
3718,3.2326
3719,3.2505
3720,2.9454
3721,3.4958
3722,3.4318
3723,3.9406
3724,4.8875
3725,2.4872
3726,3.3991
3727,2.9922
3728,2.8766
3729,2.5729
3730,3.1211
3731,1.5708
3732,1.891
3733,1.6205
3734,2.7085
3735,2.4999
3736,2.5041
3737,2.9654
3738,1.9153
3739,2.3312
3740,2.7785
3741,2.2116
3742,1.4264
3743,1.882
3744,2.4057
3745,2.0592
3746,2.6937
3747,3.2682
3748,3.15
3749,2.1926
3750,4.3768
3751,1.9467
3752,2.6477
3753,3.4866
3754,2.6641
3755,2.4516
3756,0.94681
3757,0.90608
3758,0.78453
3759,1.3379
3760,1.9474
3761,0.96205
3762,1.2574
3763,0.89643
3764,0.89355
3765,1.4689
3766,1.5904
3767,2.3834
3768,3.1397
3769,2.4855
3770,3.7152
3771,2.8755
3772,2.3914
3773,2.7239
3774,2.6818
3775,2.8714
3776,2.4924
3777,3.4782
3778,3.3028
3779,1.9519
3780,2.1565
3781,2.0652
3782,1.1417
3783,2.0897
3784,1.7429
3785,1.5561
3786,2.9313
3787,1.1636
3788,1.2137
3789,0.48322
3790,1.5577
3791,2.103
3792,2.721
3793,2.651
3794,2.7481
3795,2.5624
3796,2.9491
3797,3.6521
3798,3.6921
3799,3.787
3800,1.0735
3801,1.0298
3802,1.5103
3803,1.7446
3804,0.94578
3805,3.2978
3806,2.7967
3807,2.9518
3808,3.7114
3809,2.4067
3810,3.0279
3811,2.1863
3812,6.2221
3813,3.117
3814,3.1201
3815,4.0017
3816,1.5448
3817,1.177
3818,1.93
3819,1.1276
3820,3.5665
3821,3.3724
3822,4.0108
3823,3.1002
3824,3.1399
3825,3.3116
3826,3.851
3827,5.4361
3828,3.6255
3829,4.304
3830,6.0562
3831,4.6202
3832,4.3836
3833,6.2728
3834,4.4416
3835,6.1721
3836,1.946
3837,1.2332
3838,3.5573
3839,1.9649
3840,1.048
3841,1.6311
3842,3.4147
3843,2.3294
3844,1.5916
3845,1.1508
3846,2.8076
3847,2.3527
3848,1.6022
3849,2.7389
3850,3.256
3851,1.6125
925,3.2559
926,0.23884
927,0.32155
928,2.355
929,2.0124
930,14.975
931,25.033
932,30.948
933,27.199
934,7.017
935,28.527
936,23.635
937,30.472
938,30.004
939,23.288
940,4.6903
941,0.42132
942,1.2094
943,0.45616
944,1.6687
945,2.048
946,3.6314
947,1.0434
948,1.4581
949,1.4267
950,3.001
951,3.3481
952,27.7
953,30.069
954,23.913
955,17.609
956,18.313
957,22.724
958,18.355
959,13.613
960,19.138
961,18.517
962,6.2144
963,0.14613
964,0.68749
965,0.4135
966,0.45635
967,0.91582
968,0.7546
969,0.75149
970,0.51693
971,0.66161
972,0.96177
973,9.7197
974,19.069
975,10.815
976,28.118
977,20.354
978,22.411
979,7.6654
980,22.034
981,32.636
982,3.3941
983,2.4724
984,0.61586
985,1.3579
986,2.0449
987,2.4066
988,0.89921
989,3.2305
990,1.033
991,0.70308
992,1.0522
993,0.82618
994,0.55633
995,8.336
996,32.373
997,38.689
998,37.517
999,31.79
1000,16.089
1001,18.069
1002,27.334
1003,32.018
1004,37.025
1005,4.2873
1006,5.7962
1007,39.045
1008,39.985
1009,31.323
1010,33.289
1011,22.679
1012,19.663
1013,40.617
1014,36.193
1015,29.918
1016,6.4102
1017,9.6358
1018,4.4584
1019,14.277
1020,12.54
1021,18.04
1022,36.147
1023,18.361
1024,127.09
1025,167.1
1026,79.839
1027,100.38
1028,98.751
1029,170.08
1030,185.77
1031,118.47
1032,85.201
1033,83.466
1034,17.695
1035,15.79
1036,3.694
1037,6.4677
1038,25.696
1039,11.229
1040,16.142
1041,7.793
1042,39.482
1043,25.055
1044,31.203
1045,28.507
1046,18.605
1047,34.688
1048,34.268
1049,32.362
1050,25.292
1051,27.932
1052,14.843
1053,60.505
1054,2.0879
1055,24.024
1056,26.391
1057,23.088
1058,29.919
1059,49.744
1060,26.605
1061,2.3393
1062,3.4931
1063,22.895
1064,33.816
1065,35.555
1066,29.283
1067,30.519
1068,29.395
1069,2.5695
1070,78.052
1071,53.61
1072,19.437
1073,17.093
1074,25.746
1075,31.319
1076,33.428
1077,65.235
1078,3.1007
1079,7.6537
1080,9.7877
1081,8.2704
1082,3.2023
1083,2.6094
1084,5.2443
1085,3.4674
1086,4.6299
1087,5.1657
1088,3.8214
1089,2.2464
1090,3.6593
1091,8.3152
1092,7.2658
1093,3.2662
1094,2.9182
1095,7.2213
1096,2.3539
1097,5.9755
1098,3.9122
1099,2.7097
1100,4.8319
1101,2.7898
1102,7.0758
1103,2.7231
1104,2.1031
1105,2.1304
1106,3.9218
1107,2.4072
1108,2.8859
1109,1.0055
1110,4.2859
1111,3.2856
1112,4.4723
1113,5.7245
1114,5.8534
1115,7.9615
1116,8.1254
1117,5.9852
1118,2.5635
1119,5.5883
1120,5.345
1121,4.8654
1122,7.405
1123,4.0079
1124,5.2482
1125,2.1977
1126,4.1001
1127,10.109
1128,3.7813
1129,2.7603
1130,9.5503
1131,5.8486
1132,5.187
1133,8.6521
1134,14.045
1135,11.779
1136,0.95634
1137,1.5639
1138,1.0878
1139,1.5871
1140,1.8683
1141,2.7597
1142,2.7901
1143,3.3451
1144,3.5367
1145,2.6494
1146,0.2293
1147,0.21086
1148,0.28667
1149,0.20768
1150,0.35872
1151,3.0654
1152,1.2135
1153,3.2625
1154,1.1296
1155,2.6572
1156,2.8131
1157,2.9871
1158,1.9134
1159,3.6197
1160,20.375
1161,1.574
1162,2.6796
1163,16.282
1164,25.192
1165,18.277
1166,16.061
1167,6.8929
1168,7.4439
1169,12.543
1170,22.535
1171,28.031
1172,15.602
1173,12.938
1174,12.813
1175,10.302
1176,29.019
1177,14.586
1178,30.975
1179,13.972
1180,15.786
1181,12.02
1182,15.955
1183,13.246
1184,13.554
1185,14.006
1186,14.126
1187,10.133
1188,16.301
1189,12.952
1190,11.142
1191,4.617
1192,4.0175
1193,25.828
1194,14.346
1195,10.253
1196,12.639
1197,14.651
1198,12.607
1199,15.883
1200,11.668
1201,17.056
1202,12.404
1203,13.707
1204,10.674
1205,9.444
1206,11.922
1207,21.362
1208,6.8034
1209,14.336
1210,12.176
1211,28.901
1212,23.815
1213,16.084
1214,14.682
1215,11.126
1216,16.848
1217,20.788
1218,24.956
1219,13.539
1220,9.9253
1221,9.6478
1222,1.8503
1223,5.0978
1224,17.378
1225,3.9327
1226,4.7975
1227,3.081
1228,0.79538
1229,0.59419
1230,0.56333
1231,0.52679
1232,0.82464
1233,3.576
1234,1.6307
1235,2.1833
1236,0.61549
1237,0.94019
1238,0.36597
1239,3.0649
1240,2.0219
1241,1.4573
1242,1.5408
1243,0.92341
1244,1.1725
1245,1.3232
1246,1.2204
1247,2.473
1248,1.0474
1249,0.99758
1250,1.178
1251,1.9809
1252,2.1935
1253,1.5376
1254,2.9918
1255,1.4767
1256,1.5811
1257,2.9541
1258,0.86347
1259,1.282
1260,0.63035
1261,2.8141
1262,1.6045
1263,0.89661
1264,0.97151
1265,1.4788
1266,3.0994
1267,2.3451
1268,0.55569
1269,1.8697
1270,1.8415
1271,1.6249
1272,1.6665
1273,1.0477
1274,3.5396
1275,1.1781
1276,2.9825
1277,2.4767
1278,2.4772
1279,1.694
1280,1.4057
1281,3.7286
1282,16.607
1283,2.7823
1284,4.4069
1285,1.9749
1286,14.854
1287,28.626
1288,29.937
1289,17.236
1290,11.903
1291,11.793
1292,13.546
1293,31.155
1294,26.902
1295,17.41
1296,16.241
1297,13.141
1298,19.458
1299,4.1214
1300,24.419
1301,7.4091
1302,12.662
1303,8.6517
1304,16.76
1305,7.016
1306,9.6607
1307,10.206
1308,9.648
1309,8.1167
1310,8.0539
1311,19.717
1312,6.0934
1313,2.6673
1314,9.9156
1315,8.5593
1316,19.947
1317,11.391
1318,8.2389
1319,7.9701
1320,12.379
1321,10.75
1322,15.768
1323,9.0667
1324,14.551
1325,13.09
1326,10.483
1327,8.5811
1328,8.3969
1329,16.061
1330,20.316
1331,10.583
1332,7.9512
1333,6.2257
1334,16.151
1335,23.399
1336,16.236
1337,13.02
1338,10.73
1339,7.2459
1340,22.183
1341,14.01
1342,38.185
1343,18.821
1344,7.3127
1345,2.8746
1346,5.0599
1347,32.329
1348,3.1079
1349,3.9482
1350,3.2215
1351,0.37173
1352,0.18976
1353,0.53986
1354,0.46923
1355,0.79999
1356,3.4975
1357,0.77679
1358,0.36827
1359,0.28324
1360,0.57485
1361,0.25114
1362,0.63181
1363,0.60133
1364,3.634
1365,1.5931
1366,0.81008
1367,0.85746
1368,0.70288
1369,1.8575
1370,1.5957
1371,0.58472
1372,0.67275
1373,0.66265
1374,0.78758
1375,1.4954
1376,0.52878
1377,0.38437
1378,0.71887
1379,0.52869
1380,1.5142
1381,1.303
1382,1.5601
1383,1.286
1384,1.5065
1385,0.46873
1386,0.3064
1387,0.48398
1388,1.6577
1389,1.1644
1390,0.32277
1391,0.34939
1392,1.6943
1393,3.5726
1394,0.6853
1395,3.8064
1396,0.79777
1397,0.49106
1398,15.509
1399,3.974
1400,6.0915
1401,17.211
1402,7.2311
1403,8.7729
1404,5.6427
1405,6.5244
1406,5.7438
1407,5.4629
1408,5.9977
1409,8.2636
1410,5.1691
1411,19.946
1412,12.175
1413,12.149
1414,17.05
1415,23.169
1416,8.9643
1417,9.0146
1418,11.086
1419,13.331
1420,4.622
1421,15.725
1422,13.649
1423,6.554
1424,20.817
1425,8.3377
1426,5.4485
1427,5.8283
1428,5.2001
1429,7.1479
1430,8.5747
1431,7.4068
1432,24.502
1433,29.748
1434,20.233
1435,21.492
1436,25.325
1437,43.694
1438,16.242
1439,14.64
1440,14.303
1441,14.844
1442,13.052
1443,19.783
1444,18.659
1445,26.086
1446,11.509
1447,18.478
1448,27.901
1449,16.04
1450,17.635
1451,15.106
1452,35.154
1453,41.355
1454,10.909
1455,10.542
1456,10.638
1457,10.292
1458,8.3685
1459,10.616
1460,11.63
1461,17.036
1462,12.686
1463,19.041
1464,22.822
1465,24.844
1466,13.709
1467,11.532
1468,11.01
1469,12.578
1470,14.458
1471,7.3743
1472,6.2199
1473,3.4435
1474,11.754
1475,18.546
1476,14.893
1477,4.0688
1478,3.6426
1479,3.3019
1480,3.6245
1481,8.8182
1482,7.2505
1483,4.9427
1484,18.654
1485,25.409
1486,41.624
1487,11.794
1488,13.458
1489,10.067
1490,11.303
1491,11.707
1492,11.173
1493,11.276
1494,23.384
1495,27.943
1496,46.088
1497,16.294
1498,16.629
1499,15.923
1500,23.023
1501,20.858
1502,10.213
1503,1.6809
1504,6.7036
1505,9.2584
1506,11.752
1507,5.1099
1508,2.8692
1509,2.877
1510,2.972
1511,2.2436
1512,2.9936
1513,1.8488
1514,2.0316
1515,0.83519
1516,3.1837
1517,2.0486
1518,1.4692
1519,1.3104
1520,2.9784
1521,1.6814
1522,1.3842
1523,1.0641
1524,1.5598
1525,2.6489
1526,3.3016
1527,3.8588
1528,2.0338
1529,1.3183
1530,2.8925
1531,2.0496
1532,2.7086
1533,1.5398
1534,2.1364
1535,2.6188
1536,1.7015
1537,0.99566
1538,3.2433
1539,1.9042
1540,1.8496
1541,2.375
1542,1.2372
1543,2.4983
1544,3.1702
1545,2.7802
1546,3.4996
1547,2.5116
1548,3.3108
1549,0.82494
1550,3.7827
1551,1.688
1552,0.93749
1553,0.79683
1554,2.653
1555,0.60575
1556,0.86657
1557,0.65597
1558,0.85537
1559,1.4439
1560,1.8921
1561,0.86852
1562,1.4304
1563,0.42473
1564,1.0816
1565,1.58
1566,1.6807
1567,1.5507
1568,3.8028
1569,0.97029
1570,1.3019
1571,32.971
1572,4.433
1573,15.872
1574,4.6021
1575,1.9236
1576,3.9138
1577,4.533
1578,13.659
1579,28.102
1580,29.047
1581,15.881
1582,15.927
1583,13
1584,15.741
1585,15.607
1586,32.358
1587,30.77
1588,17.48
1589,18.629
1590,22.753
1591,34.407
1592,30.142
1593,14.216
1594,20.588
1595,19.078
1596,23.295
1597,11.461
1598,13.631
1599,16.491
1600,18.116
1601,12.741
1602,16.066
1603,16.632
1604,5.2534
1605,8.5842
1606,6.445
1607,22.598
1608,6.3335
1609,7.0836
1610,8.3688
1611,9.6655
1612,9.549
1613,7.1123
1614,7.6651
1615,8.8208
1616,28.206
1617,11.044
1618,14.253
1619,17.374
1620,14.169
1621,13.081
1622,8.546
1623,30.347
1624,40.585
1625,12.33
1626,14.94
1627,16.167
1628,19.872
1629,16.893
1630,18.227
1631,13.991
1632,43.336
1633,30.878
1634,17.69
1635,19.202
1636,19.303
1637,20.849
1638,16.543
1639,14.802
1640,3.2407
1641,2.8087
1642,4.2979
1643,2.9028
1644,3.7722
1645,2.3372
1646,18.109
1647,4.5062
1648,13.997
1649,3.2461
1650,4.3522
1651,4.7359
1652,4.4389
1653,3.5353
1654,17.929
1655,30.745
1656,36.317
1657,19.112
1658,20.978
1659,20.263
1660,20.418
1661,14.104
1662,36.123
1663,36.513
1664,19.911
1665,20.591
1666,21.749
1667,21.135
1668,23.625
1669,31.114
1670,32.407
1671,15.695
1672,16.451
1673,16.316
1674,16.693
1675,18.878
1676,27.184
1677,17.71
1678,15.105
1679,19.264
1680,18.056
1681,18.023
1682,18.923
1683,20.899
1684,8.7625
1685,13.734
1686,14.877
1687,29.044
1688,10.161
1689,7.2338
1690,10.709
1691,13.07
1692,12.366
1693,7.0656
1694,13.957
1695,15.411
1696,34.726
1697,19.859
1698,22.559
1699,23.886
1700,24.3
1701,13.367
1702,32.295
1703,32.522
1704,17.506
1705,17.274
1706,20.221
1707,19.092
1708,8.9933
1709,29.828
1710,29.623
1711,14.737
1712,14.77
1713,13.667
1714,14.208
1715,21.565
1716,17.711
1717,3.7566
1718,3.4092
1719,4.0845
1720,1.8726
1721,2.5761
1722,4.7353
1723,10.689
1724,40.094
1725,51.323
1726,62.769
1727,12.424
1728,15.592
1729,6.529
1730,49.453
1731,42.079
1732,12.542
1733,15.818
1734,12.961
1735,56.252
1736,46.808
1737,43.83
1738,13.75
1739,19.786
1740,15.78
1741,4.4624
1742,57.775
1743,40.804
1744,13.643
1745,23.338
1746,71.062
1747,91.338
1748,46.414
1749,23.863
1750,39.339
1751,23.145
1752,100.71
1753,93.944
1754,108.36
1755,42.217
1756,47.129
1757,48.216
1758,95.672
1759,10.685
1760,31.81
1761,14.228
1762,13.32
1763,135.97
1764,85.569
1765,91.405
1766,71.715
1767,149.52
1768,171
1769,118.18
1770,103.5
1771,108.48
1772,107.35
1773,66.789
1774,51.606
1775,43.81
1776,100.29
1777,82.004
1778,53.352
1779,59.174
1780,83.465
1781,65.144
1782,54.729
1783,109.79
1784,100.79
1785,105.08
1786,65.345
1787,49.821
1788,47.344
1789,48.962
1790,50.914
1791,55.305
1792,39.906
1793,68.321
1794,41.035
1795,51.975
1796,16.618
1797,21.632
1798,11.007
1799,47.655
1800,24.872
1801,41.163
1802,11.287
1803,20.71
1804,12.952
1805,10.406
1806,34.168
1807,40.338
1808,10.005
1809,4.8798
1810,4.2382
1811,9.7766
1812,11.033
1813,14.465
1814,4.5302
1815,6.6693
1816,5.0598
1817,4.2447
1818,11.205
1819,3.4277
1820,10.964
1821,18.147
1822,7.5355
1823,4.9411
1824,51.795
1825,39.081
1826,45.12
1827,14.844
1828,8.7947
1829,31.766
1830,5.325
1831,5.479
1832,6.3374
1833,16.094
1834,15.66
1835,20.261
1836,22.869
1837,12.326
1838,41.292
1839,6.897
1840,18.86
1841,4.0331
1842,31.488
1843,17.162
1844,6.3581
1845,13.469
1846,15.965
1847,15.87
1848,13.158
1849,18.921
1850,15.903
1851,14.304
1852,10.778
1853,16.559
1854,9.3466
1855,7.6126
1856,7.6107
1857,26.052
1858,14.72
1859,25.584
1860,14.408
1861,16.825
1862,14.357
1863,17.325
1864,14.289
1865,6.1486
1866,13.299
1867,9.1236
1868,10.221
1869,15.185
1870,11.254
1871,9.2985
1872,8.5157
1873,8.8895
1874,41.177
1875,27.097
1876,2.4217
1877,1.9532
1878,1.3987
1879,11.967
1880,8.603
1881,11.7
1882,12.067
1883,12.286
1884,10.612
1885,12.579
1886,16.409
1887,9.3525
1888,7.1949
1889,10.459
1890,10.764
1891,13.711
1892,15.023
1893,11.798
1894,12.088
1895,15.701
1896,18.834
1897,17.269
1898,24.104
1899,25.81
1900,27.285
1901,12.425
1902,13.257
1903,11.953
1904,13.701
1905,13.298
1906,1.9281
1907,2.0973
1908,1.3613
1909,3.1726
1910,3.6288
1911,2.4715
1912,10.104
1913,10.794
1914,10.185
1915,12.615
1916,11.814
1917,11.961
1918,16.3
1919,17.012
1920,18.229
1921,17.552
1922,19.688
1923,17.357
1924,18.473
1925,18.346
1926,20.299
1927,14.242
1928,13.901
1929,14.521
1930,17.053
1931,14.824
1932,17.938
1933,14.622
1934,13.927
1935,14.394
1936,15.097
1937,14.575
1938,12.184
1939,13.387
1940,13.894
1941,2.9012
1942,3.308
1943,2.1247
1944,64.752
1945,54.64
1946,70.707
1947,22.112
1948,58.134
1949,21.67
1950,24.122
1951,12.958
1952,27.253
1953,12.162
1954,46.981
1955,5.1338
1956,4.0645
1957,3.1374
1958,2.4715
1959,2.7952
1960,8.3241
1961,5.3145
1962,5.8637
1963,4.7614
1964,7.1618
1965,7.6046
1966,5.7751
1967,3.9017
1968,8.9684
1969,5.3681
1970,4.9073
1971,4.5454
1972,7.7181
1973,3.3697
1974,4.0305
1975,8.2393
1976,3.1759
1977,5.906
1978,2.7882
1979,3.1875
1980,2.4521
1981,1.3471
1982,2.3825
1983,2.9234
1984,2.292
1985,2.949
1986,1.3781
1987,2.0085
1988,4.186
1989,3.3136
1990,3.6921
1991,3.9341
1992,2.6373
1993,3.0042
1994,3.2885
1995,5.6477
1996,3.7953
1997,3.3935
1998,2.7362
1999,4.5889
2000,3.7987
2001,5.1916
2002,7.083
2003,3.0184
2004,2.2344
2005,2.3786
2006,2.9072
2007,2.7988
2008,1.8588
2009,2.5545
2010,7.7544
2011,4.5337
2012,8.8199
2013,7.5295
2014,3.0511
2015,5.6638
2016,4.0037
2017,2.5995
2018,1.4877
2019,4.3244
2020,1.9507
2021,2.5168
2022,4.3927
2023,2.3593
2024,1.1013
2025,3.9269
2026,3.6088
2027,3.5303
2028,3.3592
2029,0.97495
2030,3.5335
2031,1.4683
2032,1.6689
2033,4.7025
2034,3.8961
2035,3.0642
2036,3.0143
2037,3.9255
2038,2.5493
2039,3.0325
2040,4.0642
2041,3.2917
2042,2.1448
2043,3.5708
2044,2.2892
2045,2.4881
2046,3.7934
2047,4.433
2048,2.9463
2049,1.7063
2050,4.7531
2051,5.4859
2052,3.9729
2053,2.2758
2054,4.2186
2055,3.4653
2056,2.6667
2057,2.2755
2058,2.7106
2059,2.9481
2060,1.5188
2061,1.2066
2062,1.7669
2063,1.1768
2064,2.9542
2065,3.2137
2066,3.8048
2067,1.3776
2068,3.0776
2069,3.9727
2070,3.8805
2071,2.8386
2072,3.5299
2073,6.079
2074,2.7155
2075,3.0555
2076,2.873
2077,3.0163
2078,1.8363
2079,1.608
2080,2.7433
2081,2.3506
2082,2.3354
2083,4.0023
2084,1.3532
2085,2.886
2086,2.5482
2087,3.0523
2088,3.0668
2089,2.0546
2090,3.6438
2091,2.9274
2092,1.2892
2093,4.7999
2094,3.3991
2095,3.286
2096,2.3591
2097,2.407
2098,5.1076
2099,4.7847
2100,3.1989
2101,4.4503
2102,3.962
2103,3.8112
2104,6.0314
2105,8.2208
2106,6.0401
2107,4.3008
2108,6.3333
2109,6.8491
2110,8.4099
2111,4.4678
2112,8.0485
2113,8.0522
2114,2.9502
2115,2.3346
2116,4.3667
2117,2.4187
2118,5.2256
2119,2.4009
2120,3.7659
2121,6.5378
2122,3.1515
2123,6.5589
2124,3.11
2125,4.5379
2126,4.6407
2127,2.9213
2128,5.2577
2129,4.2214
2130,7.9506
2131,5.3861
2132,6.9379
2133,8.1964
2134,11.779
